18
DEC.sdf
O     -1.102200    -0.437900     0.000600
O      1.102300    -0.437800     0.000600
O      0.000000     1.586500    -0.000100
C     -2.361100     0.243600    -0.000400
C      2.361000     0.243600    -0.000400
C     -3.476000    -0.780400    -0.000400
C      3.476000    -0.780400    -0.000400
C      0.000000     0.362900     0.000600
H     -2.436400     0.872800     0.893400
H     -2.435500     0.871800    -0.895100
H      2.435400     0.871800    -0.895100
H      2.436300     0.872900     0.893400
H     -4.454900    -0.292800    -0.001200
H     -3.403500    -1.429200    -0.879500
H     -3.404300    -1.428200     0.879500
H      4.454900    -0.292800    -0.001100
H      3.404300    -1.428200     0.879600
H      3.403500    -1.429200    -0.879400
