12
DMC.sdf
O     -1.102300    -0.698000     0.000200
O      1.102300    -0.698000     0.000200
O      0.000100     1.326400     0.000200
C      0.000000     0.102800     0.000500
C     -2.361100    -0.016600    -0.000600
C      2.361000    -0.016600    -0.000600
H     -2.459600     0.597800     0.899500
H     -3.154700    -0.768400    -0.000800
H     -2.458700     0.597500    -0.901000
H      3.154700    -0.768500    -0.000900
H      2.459600     0.597800     0.899500
H      2.458700     0.597400    -0.900900
