        4160
  Built with Packmol                                             
  O            6.168032       58.831712       31.935463
  O            5.304571       56.899552       32.700158
  O            4.925095       57.517753       30.522671
  C            6.751620       58.586754       33.206518
  C            5.805315       57.607822       33.824279
  C            5.420374       57.730377       31.619271
  H            6.835863       59.511683       33.783092
  H            7.750482       58.164583       33.054288
  H            6.299516       56.930063       34.525348
  H            4.965524       58.098051       34.327926
  O           39.207143       53.948226       44.727246
  O           36.973856       54.223545       44.741251
  O           38.329485       55.996360       45.276993
  C           38.639204       52.790748       44.132392
  C           37.222934       52.831885       44.609797
  C           38.183495       54.829315       44.945734
  H           39.165266       51.887813       44.453318
  H           38.717180       52.885902       43.044277
  H           36.526820       52.375032       43.901418
  H           37.098234       52.362697       45.591400
  O            9.311345       20.709245       52.449931
  O            9.713495       22.764665       51.627076
  O           11.480134       21.421345       52.211970
  C            8.078491       21.210167       51.954644
  C            8.320310       22.684156       51.888972
  C           10.278194       21.614234       52.106265
  H            7.253410       20.948558       52.622348
  H            7.896812       20.771320       50.967966
  H            7.744574       23.169984       51.096768
  H            8.116682       23.184651       52.841481
  O           52.631385       22.730516        6.099221
  O           53.165407       21.331019        4.419997
  O           51.684095       20.641153        6.031649
  C           53.355400       23.485886        5.139337
  C           54.060416       22.430963        4.348441
  C           52.426032       21.489867        5.560212
  H           54.046520       24.178426        5.626952
  H           52.641203       24.055016        4.535066
  H           54.232911       22.728135        3.310643
  H           55.012184       22.134064        4.801455
  O           58.250437        1.368205       41.619101
  O           56.817308        2.798927       42.600296
  O           56.286494        0.568416       42.496954
  C           58.927138        2.608745       41.758008
  C           57.806284        3.580157       41.946350
  C           57.048301        1.493955       42.260168
  H           59.528942        2.827429       40.871984
  H           59.582343        2.550591       42.633481
  H           58.093036        4.439921       42.557634
  H           57.395482        3.934916       40.995234
  O           47.824471       30.663777       55.880410
  O           45.624951       30.627807       56.354103
  O           47.117538       29.775169       57.874898
  C           47.172470       31.458080       54.900544
  C           45.752881       30.997266       54.989122
  C           46.877564       30.306723       56.801165
  H           47.607188       31.293616       53.911100
  H           47.288459       32.511902       55.174647
  H           45.038645       31.782532       54.727752
  H           45.560056       30.114142       54.370945
  O           44.222539        4.188170       12.341296
  O           42.112459        4.442740       11.602158
  O           42.482965        3.388292       13.606775
  C           44.272403        5.068990       11.228718
  C           42.976069        4.801090       10.533607
  C           42.901111        3.954388       12.607911
  H           45.139700        4.854725       10.598709
  H           44.342887        6.096033       11.602005
  H           42.596082        5.676378       10.000157
  H           43.039671        3.955803        9.840298
  O           43.998354       26.338638       33.120205
  O           44.482590       28.440636       32.479359
  O           46.164897       26.883645       32.594449
  C           42.763324       27.005393       32.905037
  C           43.148966       28.448625       32.966617
  C           44.989452       27.192791       32.720132
  H           42.032640       26.732149       33.670848
  H           42.379560       26.716178       31.921061
  H           42.509439       29.081758       32.345942
  H           43.155852       28.836795       33.990585
  O           35.452259       17.779743       38.524161
  O           34.863621       19.951431       38.495162
  O           33.230198       18.344589       38.627868
  C           36.642160       18.537870       38.683967
  C           36.246569       19.888647       38.179644
  C           34.407701       18.662824       38.555391
  H           37.464788       18.099830       38.112625
  H           36.906785       18.548644       39.746504
  H           36.796389       20.697567       38.667942
  H           36.359447       19.979833       37.094206
  O           47.212257        0.747289       16.326696
  O           46.814350        2.650779       15.194459
  O           46.722468        0.642651       14.086937
  C           47.094318        1.787669       17.285789
  C           47.318445        3.020051       16.469435
  C           46.900385        1.287943       15.109182
  H           47.833465        1.670737       18.082668
  H           46.088954        1.748909       17.718071
  H           46.785277        3.888901       16.864300
  H           48.380532        3.265588       16.364956
  O           42.840717       36.949494       45.352949
  O           44.926572       36.406670       44.706328
  O           43.761034       34.971870       46.066657
  C           43.219760       37.873792       44.343909
  C           44.710377       37.758512       44.329739
  C           43.836032       36.014198       45.433437
  H           42.878168       38.882795       44.589379
  H           42.766539       37.559953       43.397746
  H           45.138795       37.963674       43.345130
  H           45.187455       38.406349       45.072664
  O           29.833121        9.835532       37.435389
  O           27.896240       10.630967       36.611169
  O           29.579233       12.097791       37.143694
  C           29.084998        8.720041       36.974789
  C           27.691501        9.257900       36.909175
  C           29.142662       10.958900       37.070395
  H           29.178042        7.875619       37.662772
  H           29.467675        8.427657       35.991327
  H           27.090211        8.774835       36.134459
  H           27.169052        9.185144       37.868856
  O           20.139889       13.459570       39.886224
  O           21.489433       11.910173       40.803647
  O           19.416416       11.287004       40.040833
  C           21.418930       14.056828       40.039512
  C           22.077245       13.178108       41.054354
  C           20.270398       12.140911       40.226836
  H           21.328996       15.093210       40.375443
  H           21.930589       14.034696       39.071605
  H           23.163000       13.136700       40.933895
  H           21.839434       13.473956       42.081560
  O            8.925071       16.661358       54.315942
  O            9.701773       14.843926       53.240191
  O            9.106027       16.699759       52.028336
  C            9.435909       15.777531       55.302883
  C            9.469620       14.464491       54.588587
  C            9.232455       16.121134       53.097096
  H            8.789936       15.760307       56.184614
  H           10.433945       16.121635       55.593821
  H           10.264255       13.807889       54.952617
  H            8.512400       13.935070       54.640317
  O           19.666524       19.262365       32.892157
  O           17.452667       19.406018       33.268676
  O           18.369698       17.377576       32.710014
  C           19.418814       20.546106       33.446059
  C           17.954151       20.733133       33.211085
  C           18.485648       18.572786       32.936001
  H           20.025105       21.309321       32.951144
  H           19.671924       20.519314       34.511116
  H           17.483271       21.362624       33.970758
  H           17.738327       21.142999       32.218783
  O           12.959535        9.438137       48.110667
  O           10.830561       10.111951       48.388176
  O           11.306217        8.501670       46.823449
  C           12.923650       10.239214       49.282482
  C           11.652040       11.008833       49.120850
  C           11.665925        9.279678       47.694284
  H           13.802629       10.886523       49.340895
  H           12.904590        9.577545       50.154811
  H           11.192155       11.267243       50.078356
  H           11.786429       11.919648       48.527902
  O           47.399644       41.545168       11.327406
  O           48.774585       42.330463        9.728527
  O           48.588627       40.064047       10.039011
  C           47.137028       42.934298       11.195085
  C           48.366337       43.441962       10.512070
  C           48.282497       41.208606       10.337857
  H           46.977336       43.397069       12.172514
  H           46.236571       43.060730       10.584905
  H           48.168133       44.313090        9.882038
  H           49.168368       43.682404       11.217878
  O           16.150953       37.091965       44.307999
  O           18.331238       37.579356       44.577026
  O           16.805566       39.288057       44.434575
  C           16.818096       35.874492       44.606060
  C           18.245075       36.191142       44.291586
  C           17.071635       38.095485       44.439152
  H           16.425496       35.054505       43.999007
  H           16.663916       35.644578       45.665540
  H           18.947548       35.621167       44.905384
  H           18.484442       36.038736       43.233896
  O           58.014746       31.270484       42.439665
  O           57.107291       29.231970       42.148886
  O           55.733147       31.033609       42.514194
  C           59.053631       30.409243       41.997914
  C           58.507765       29.049418       42.295125
  C           56.849674       30.555661       42.380131
  H           59.985336       30.614429       42.531627
  H           59.208355       30.573271       40.926334
  H           58.877302       28.287478       41.603764
  H           58.710972       28.732291       43.323410
  O           26.383975       10.680412       31.969931
  O           27.416272       12.665411       31.729702
  O           27.253972       11.727012       33.817929
  C           26.552696       10.898334       30.577020
  C           26.777079       12.374298       30.495715
  C           27.037594       11.694098       32.615790
  H           25.668599       10.575947       30.020723
  H           27.421095       10.323541       30.238457
  H           27.410210       12.657600       29.650744
  H           25.839576       12.938324       30.448871
  O           12.290119       21.816392       56.443614
  O           14.350418       21.772234       55.539852
  O           12.904329       23.458341       54.962361
  C           13.034788       20.833555       57.147646
  C           14.161532       20.535425       56.211166
  C           13.158305       22.441754       55.590921
  H           12.420257       19.954684       57.359692
  H           13.378978       21.269050       58.091577
  H           15.072506       20.230279       56.732800
  H           13.898811       19.774232       55.469009
  O           12.268945        8.428865       33.747978
  O           13.385555        9.513503       32.123075
  O           11.465073        8.371231       31.599065
  C           13.253672        9.232074       34.381483
  C           14.217649        9.512652       33.273578
  C           12.297278        8.737475       32.415361
  H           13.715854        8.698597       35.216239
  H           12.771446       10.140672       34.757030
  H           14.724586       10.474126       33.390498
  H           14.966439        8.721700       33.159817
  O           26.707976       18.946605       28.746265
  O           25.824205       20.018355       26.975992
  O           24.427473       19.018763       28.498351
  C           27.762932       19.662622       28.121327
  C           27.222985       19.922930       26.751609
  C           25.550559       19.301783       28.108970
  H           28.681920       19.070805       28.105789
  H           27.937726       20.585175       28.684773
  H           27.612910       20.845786       26.314133
  H           27.408230       19.091354       26.063570
  O           12.403407       17.789509       27.690397
  O           13.841380       16.631769       26.403759
  O           12.775654       15.569224       28.136632
  C           12.718823       18.608585       26.574249
  C           13.987163       18.002804       26.064568
  C           12.987660       16.571913       27.471268
  H           12.842784       19.651640       26.877065
  H           11.900608       18.538287       25.849880
  H           14.109182       18.128037       24.985441
  H           14.873047       18.394482       26.575478
  O           16.667806       12.406680        2.916504
  O           16.533274       10.197872        2.508297
  O           18.559167       11.257745        2.308179
  C           15.383502       11.979409        3.345645
  C           15.204027       10.684214        2.620600
  C           17.362730       11.284994        2.554824
  H           14.619029       12.716382        3.085878
  H           15.405779       11.850995        4.432908
  H           14.574357        9.978786        3.169212
  H           14.798280       10.821366        1.612735
  O            4.502826       14.430851       26.860992
  O            2.257334       14.509139       26.737686
  O            3.285833       12.532065       27.286315
  C            4.137381       15.798432       26.749935
  C            2.748498       15.728388       26.200818
  C            3.343411       13.715739       26.988591
  H            4.824234       16.334516       26.089729
  H            4.170974       16.248797       27.747518
  H            2.128745       16.572200       26.515419
  H            2.733414       15.657548       25.108121
  O           30.185507       31.425139        7.311714
  O           32.393608       31.853756        7.247346
  O           31.584249       29.963136        6.228465
  C           30.369022       32.748297        7.793103
  C           31.816519       32.768815        8.166951
  C           31.404280       30.986934        6.870718
  H           29.712062       32.949901        8.643271
  H           30.135756       33.447697        6.983439
  H           32.263496       33.761147        8.064102
  H           31.991986       32.397768        9.182218
  O           42.401980        3.829605       31.084974
  O           40.939207        2.122320       31.180051
  O           40.230053        4.170954       30.426510
  C           43.150502        2.651394       31.345153
  C           42.113722        1.705208       31.860176
  C           41.109907        3.441089       30.858013
  H           43.942904        2.844133       32.073149
  H           43.598843        2.310547       30.406035
  H           42.347157        0.661499       31.633749
  H           41.947558        1.812050       32.937305
  O           13.410648       46.914192       31.890573
  O           14.865083       46.532534       33.564646
  O           13.359698       44.898966       32.987673
  C           14.360722       47.969185       31.867986
  C           14.954862       47.911590       33.238793
  C           13.834847       46.013460       32.829001
  H           13.876879       48.926936       31.659098
  H           15.095460       47.757886       31.083996
  H           15.993381       48.252235       33.261773
  H           14.372615       48.480045       33.971651
  O           56.356940       42.240088       50.394906
  O           57.525104       40.910359       49.005380
  O           56.930492       43.016074       48.312541
  C           56.790097       41.120402       51.153087
  C           57.107735       40.107872       50.099845
  C           56.936692       42.135861       49.160023
  H           56.006365       40.784270       51.837051
  H           57.672337       41.413416       51.731814
  H           57.899883       39.418687       50.404170
  H           56.227732       39.532852       49.792957
  O           56.888516       14.461931        3.064560
  O           59.112134       14.136814        3.180280
  O           58.216336       15.134819        1.317713
  C           57.184364       14.063420        4.394907
  C           58.528194       13.422193        4.259340
  C           58.084364       14.624259        2.419961
  H           56.425683       13.374052        4.774647
  H           57.208682       14.956863        5.027597
  H           59.133162       13.517803        5.164857
  H           58.461540       12.365390        3.980133
  O           16.356399       26.385169       10.753117
  O           14.676473       24.993095       11.304066
  O           16.840894       24.234679       11.391879
  C           15.176486       27.169602       10.846020
  C           14.088944       26.150378       10.728268
  C           16.031857       25.123016       11.169712
  H           15.140203       27.917453       10.049510
  H           15.172099       27.676317       11.816766
  H           13.182449       26.438327       11.267194
  H           13.834053       25.928574        9.686603
  O           57.686166       53.919832       12.280387
  O           58.988138       53.623653       14.091661
  O           59.256254       55.508079       12.809211
  C           57.150190       52.823358       13.006083
  C           58.296098       52.403827       13.869980
  C           58.695027       54.447345       13.039227
  H           56.820777       52.030188       12.329774
  H           56.294134       53.178392       13.589391
  H           57.970416       51.961425       14.815125
  H           58.971981       51.708926       13.360540
  O           52.741857       53.280586       36.927556
  O           50.963388       52.239988       36.023252
  O           52.642682       52.994212       34.652581
  C           51.998648       52.716169       37.997711
  C           50.653180       52.490428       37.386002
  C           52.159961       52.851563       35.765986
  H           51.963504       53.397633       38.851759
  H           52.482495       51.781990       38.301572
  H           50.126437       51.641481       37.829758
  H           50.014798       53.378617       37.439119
  O           45.384928       31.865350       40.806514
  O           44.737688       31.701024       38.657643
  O           46.119443       30.096181       39.542436
  C           44.363395       32.830204       40.602344
  C           44.345428       32.986530       39.115512
  C           45.473323       31.126797       39.658195
  H           44.597754       33.763702       41.120692
  H           43.422710       32.427597       40.992405
  H           43.356905       33.253438       38.732535
  H           45.078742       33.719346       38.762716
  O           57.117946       49.384512       38.460513
  O           55.854227       51.246295       38.442053
  O           58.062484       51.379189       37.830853
  C           55.769572       48.976668       38.638591
  C           55.098269       50.234035       39.090045
  C           57.099644       50.729451       38.210090
  H           55.698078       48.173313       39.376517
  H           55.385414       48.618736       37.677635
  H           54.047265       50.279828       38.792753
  H           55.173727       50.383568       40.172255
  O           33.068016       28.624672       27.741068
  O           33.209197       30.830067       28.165173
  O           31.143431       29.836917       28.047327
  C           34.434215       28.914860       27.996905
  C           34.505796       30.393259       27.785614
  C           32.362130       29.770058       27.989515
  H           35.085941       28.360603       27.316406
  H           34.662715       28.627828       29.028665
  H           35.274487       30.869263       28.400125
  H           34.667978       30.658729       26.735635
  O            3.756268       11.050664       16.001926
  O            3.182274       13.213231       15.762341
  O            5.402818       12.644771       15.879228
  C            2.365826       11.085254       15.716206
  C            1.992298       12.493994       16.049907
  C            4.221746       12.331556       15.881275
  H            1.824105       10.352185       16.319675
  H            2.223653       10.854516       14.655228
  H            1.157556       12.861813       15.447409
  H            1.755885       12.624227       17.111218
  O           26.449989       33.717167       21.057711
  O           27.351778       33.691913       23.119193
  O           28.733153       33.758519       21.287529
  C           25.390178       33.920865       21.980461
  C           25.966221       33.418223       23.265356
  C           27.613958       33.725273       21.776752
  H           24.495791       33.370594       21.676652
  H           25.160725       34.991053       22.014786
  H           25.556158       33.931177       24.139322
  H           25.836864       32.337711       23.387806
  O           34.803768        2.084529       44.423196
  O           32.779072        1.961104       45.397331
  O           33.946824        3.935408       45.475458
  C           34.218715        0.855877       44.017874
  C           33.155874        0.637836       45.046590
  C           33.852013        2.767065       45.130458
  H           34.961929        0.054330       44.004430
  H           33.807174        0.982850       43.011076
  H           32.301599        0.078118       44.656694
  H           33.536939        0.136431       45.942478
  O           47.896989       57.831017       48.128556
  O           49.574911       56.338762       47.982552
  O           50.065029       58.579923       48.050428
  C           47.334404       56.546051       48.348831
  C           48.363811       55.628418       47.771163
  C           49.253179       57.666724       48.053285
  H           46.363818       56.453959       47.854355
  H           47.204704       56.404091       49.426864
  H           48.388232       54.656176       48.270400
  H           48.233227       55.477668       46.694383
  O           45.999691       15.123822       51.536883
  O           47.613102       14.056083       52.685972
  O           48.060354       14.827066       50.570983
  C           45.537507       14.980409       52.871791
  C           46.402378       13.884850       53.407682
  C           47.294321       14.681990       51.511826
  H           44.474646       14.725606       52.892521
  H           45.691012       15.929445       53.396095
  H           46.572836       13.971844       54.484002
  H           46.003362       12.889630       53.185073
  O           24.931366       42.853138       48.047390
  O           25.319593       44.289744       46.359489
  O           23.257073       43.299725       46.542511
  C           26.173658       43.486725       48.314671
  C           26.570199       44.020315       46.975468
  C           24.398434       43.465491       46.946065
  H           26.898704       42.773046       48.714668
  H           26.006998       44.281416       49.049395
  H           27.174929       44.928237       47.046668
  H           27.102625       43.278973       46.370351
  O           12.815480       53.440779       25.147002
  O           14.934406       54.197533       25.114700
  O           14.471266       52.112696       24.274117
  C           12.773289       54.817576       25.491691
  C           14.180407       55.098955       25.911544
  C           14.107062       53.154941       24.797682
  H           12.051241       54.998453       26.292289
  H           12.478844       55.388536       24.604880
  H           14.477703       56.133345       25.719860
  H           14.357985       54.862214       26.965893
  O           29.958473        6.748060       41.675661
  O           29.795938        6.112871       43.828260
  O           31.846672        6.083088       42.798103
  C           28.653246        7.092449       42.116044
  C           28.473077        6.234026       43.326862
  C           30.643623        6.295016       42.769841
  H           27.911443        6.886242       41.340006
  H           28.638059        8.161125       42.354434
  H           27.812983        6.688596       44.070320
  H           28.102665        5.233621       43.079444
  O           32.656414        2.974377       27.815847
  O           33.602626        0.951526       28.092109
  O           32.335949        1.842049       29.786252
  C           33.162266        2.572930       26.551287
  C           34.154177        1.513467       26.910562
  C           32.820909        1.916015       28.667153
  H           33.619018        3.416435       26.026974
  H           32.331888        2.183476       25.953017
  H           34.261447        0.755602       26.130036
  H           35.139718        1.926549       27.149951
  O           47.232932       21.412284       52.607704
  O           45.836203       22.601618       53.910853
  O           45.817392       22.938173       51.640611
  C           47.281306       20.838481       53.905614
  C           46.743551       21.931159       54.772968
  C           46.255652       22.369553       52.629367
  H           48.303518       20.555698       54.170457
  H           46.646616       19.946170       53.914502
  H           46.231161       21.550182       55.660325
  H           47.518541       22.640918       55.080970
  O           22.490912        2.102892       52.308744
  O           22.733631        0.337535       53.682850
  O           21.935885        0.006885       51.556375
  C           23.215915        2.552759       53.443712
  C           22.913233        1.506715       54.468215
  C           22.348785        0.748053       52.435707
  H           22.885484        3.548976       53.749316
  H           24.279146        2.589414       53.184241
  H           23.726220        1.374176       55.186946
  H           21.982668        1.707663       55.009419
  O           36.430594       19.981207        2.182915
  O           34.214088       19.831568        1.824763
  O           35.158970       21.891789        2.185750
  C           36.164713       18.653799        1.754597
  C           34.698342       18.509505        2.008298
  C           35.258717       20.679022        2.074903
  H           36.762256       17.933412        2.319410
  H           36.415410       18.575325        0.691526
  H           34.217327       17.816587        1.312901
  H           34.479738       18.199245        3.035520
  O           38.279542       39.379072       45.835986
  O           37.011301       41.223704       45.606939
  O           39.285264       41.442037       45.828407
  C           36.974582       38.947891       45.479164
  C           36.127982       40.132461       45.819004
  C           38.283573       40.745314       45.763354
  H           36.691119       38.053416       46.040047
  H           36.965091       38.719914       44.408153
  H           35.244172       40.214796       45.180890
  H           35.816436       40.137019       46.868838
  O           32.630820       10.647957       50.404259
  O           31.209550        9.790714       51.923697
  O           33.325803        8.920389       51.745850
  C           31.508895       11.516202       50.464216
  C           30.456251       10.657380       51.088551
  C           32.467120        9.713640       51.390243
  H           31.230185       11.864714       49.466274
  H           31.769909       12.378090       51.087232
  H           29.734688       11.234348       51.672968
  H           29.920123       10.050026       50.351719
  O           16.645138       47.487839       44.473442
  O           15.634586       49.491405       44.305895
  O           17.927216       49.384371       44.309728
  C           15.264195       47.242648       44.251996
  C           14.630166       48.542280       44.631991
  C           16.835449       48.837860       44.358831
  H           14.912049       46.407989       44.863849
  H           15.120052       47.000020       43.193940
  H           13.709903       48.739819       44.075948
  H           14.424354       48.609627       45.705461
  O           20.909862       44.841427       38.051728
  O           18.691833       44.473542       38.144330
  O           20.110219       42.709153       37.766527
  C           20.307560       46.034594       38.531043
  C           18.881421       45.880268       38.109448
  C           19.921225       43.899290       37.968748
  H           20.782786       46.916098       38.092709
  H           20.421101       46.067639       39.619687
  H           18.186079       46.385630       38.784872
  H           18.707383       46.228700       37.085955
  O           46.946449        6.703253       51.619192
  O           47.568584        7.967642       49.864817
  O           45.588412        8.421392       50.932830
  C           48.292327        6.366355       51.317083
  C           48.451232        6.856518       49.913544
  C           46.607818        7.757898       50.816096
  H           48.455725        5.289256       51.407560
  H           48.947658        6.890744       52.020422
  H           49.476596        7.161186       49.687946
  H           48.122828        6.119605       49.173043
  O           19.203918        9.194462       36.363043
  O           19.681527       11.390916       36.468146
  O           20.860289        9.919254       37.776716
  C           18.511420        9.824703       35.295615
  C           18.483535       11.258797       35.717547
  C           19.994216       10.147392       36.945506
  H           17.510462        9.402105       35.175111
  H           19.081229        9.670641       34.373274
  H           18.476052       11.947069       34.868244
  H           17.636303       11.485890       36.373182
  O           22.974059        2.342035       34.271476
  O           23.333626        4.499603       33.743105
  O           24.230295        2.852610       32.419843
  C           22.120332        3.122331       35.095155
  C           22.749041        4.477601       35.036865
  C           23.572995        3.199691       33.389653
  H           22.081722        2.719827       36.110796
  H           21.114062        3.108676       34.663457
  H           22.020390        5.284565       35.150730
  H           23.544316        4.602454       35.779281
  O            1.252813       19.000033       37.909022
  O            3.181671       18.005750       38.504399
  O            3.245501       20.034184       37.432483
  C            0.917604       17.907891       38.752242
  C            2.144494       17.055227       38.696250
  C            2.617423       19.098698       37.905162
  H            0.027824       17.389333       38.385612
  H            0.721294       18.293528       39.758161
  H            2.302167       16.484189       39.615023
  H            2.139395       16.369889       37.842132
  O           40.077738       56.079459        9.715978
  O           39.539967       55.481387        7.614388
  O           41.407512       56.765632        7.975797
  C           39.046001       55.108310        9.808429
  C           38.439298       55.136006        8.442203
  C           40.430854       56.164065        8.396864
  H           38.330404       55.371184       10.591911
  H           39.500454       54.140558       10.045192
  H           38.017423       54.170850        8.149656
  H           37.671961       55.910658        8.340514
  O           10.633885       20.542109       32.723638
  O           11.858640       18.719080       32.233633
  O            9.585133       18.516044       32.473555
  C           11.940709       20.991409       32.397296
  C           12.768471       19.757636       32.564763
  C           10.599832       19.196790       32.476925
  H           12.253309       21.801143       33.061856
  H           11.934967       21.354722       31.364291
  H           13.638280       19.741606       31.902749
  H           13.099415       19.612663       33.598538
  O            6.838873       40.166464       24.481593
  O            7.768455       40.991414       22.605719
  O            7.734081       38.721012       22.939960
  C            6.508130       41.546060       24.422571
  C            7.522947       42.091252       23.469502
  C            7.471414       39.855902       23.308838
  H            6.570723       42.006027       25.412288
  H            5.484855       41.641809       24.044590
  H            7.152933       42.953877       22.909093
  H            8.461697       42.359268       23.965635
  O           30.240577       41.396647       48.821964
  O           31.640501       40.562644       47.270121
  O           32.128386       42.574850       48.260382
  C           29.833031       40.060854       48.565598
  C           30.463793       39.768540       47.241921
  C           31.402678       41.600584       48.129259
  H           28.742984       39.982788       48.538581
  H           30.220648       39.420279       49.364688
  H           30.708735       38.710460       47.117181
  H           29.843666       40.096665       46.401083
  O           15.994374       16.490002       55.721658
  O           17.484973       15.294003       56.909625
  O           17.881520       15.695476       54.684947
  C           15.628240       16.604518       57.088769
  C           16.328194       15.443507       57.719284
  C           17.183918       15.815287       55.680957
  H           14.542677       16.556734       57.208336
  H           15.990438       17.566747       57.465672
  H           16.601370       15.632162       58.760856
  H           15.742485       14.520001       57.661712
  O            6.189852       48.806529       48.758781
  O            7.944754       50.166857       49.124012
  O            8.281110       47.898745       49.023218
  C            5.743763       50.135171       48.531020
  C            6.771206       50.957580       49.240552
  C            7.539643       48.868692       48.973510
  H            4.737004       50.283658       48.930287
  H            5.733961       50.317737       47.451343
  H            6.913975       51.939605       48.781933
  H            6.543318       51.085928       50.303955
  O           17.797891       52.856499       12.142942
  O           19.694917       51.876916       12.853770
  O           17.697927       50.772752       13.099692
  C           18.879630       53.635450       11.653825
  C           20.012679       53.224384       12.538502
  C           18.338336       51.746498       12.732627
  H           18.656372       54.703217       11.724932
  H           19.050633       53.371973       10.604794
  H           20.982444       53.290925       12.038285
  H           20.046953       53.799901       13.469544
  O           22.241546       15.673519       26.254121
  O           20.984953       16.305355       28.010630
  O           20.121864       14.824265       26.484500
  C           23.091954       16.381862       27.143625
  C           22.125685       17.150460       27.986841
  C           21.032742       15.536195       26.880097
  H           23.779438       17.030443       26.594322
  H           23.668904       15.654992       27.724932
  H           22.500363       17.330512       28.997923
  H           21.840890       18.105277       27.532475
  O           20.149115       26.257346       51.562765
  O           20.890874       28.266218       50.871538
  O           22.270830       26.439677       50.706935
  C           19.032293       27.134111       51.550514
  C           19.670329       28.486216       51.562846
  C           21.201469       26.941895       51.018839
  H           18.391411       26.963423       52.419515
  H           18.457163       26.950862       50.636854
  H           19.064368       29.241914       51.056071
  H           19.902518       28.830338       52.576207
  O           53.863573       53.381206       21.752022
  O           55.669193       52.086207       21.396665
  O           55.831824       54.354047       21.083494
  C           53.554159       52.086953       22.247332
  C           54.557214       51.218230       21.558398
  C           55.180952       53.364265       21.383056
  H           52.523816       51.812058       22.006808
  H           53.681426       52.091963       23.334947
  H           54.829317       50.339749       22.149431
  H           54.221336       50.896006       20.567141
  O           56.441660       29.436370       23.085268
  O           54.388702       29.503873       24.004165
  O           54.681325       28.464500       21.978900
  C           56.594119       29.908633       24.415638
  C           55.216035       30.371927       24.764456
  C           55.129532       29.078999       22.935217
  H           57.332920       30.712971       24.462960
  H           56.927291       29.075691       25.043596
  H           54.999922       30.282538       25.832348
  H           55.026664       31.401567       24.443189
  O            8.237079        9.462655       58.873221
  O            6.215294        8.797003       58.143248
  O            6.914806       10.941359       57.718930
  C            8.169371        8.055916       59.053948
  C            6.699433        7.785491       59.014162
  C            7.104890        9.834908       58.201294
  H            8.625858        7.760950       60.002443
  H            8.706208        7.573900       58.230180
  H            6.465125        6.790495       58.626643
  H            6.223728        7.912735       59.992296
  O           39.524946       16.655859        6.525266
  O           40.760156       16.268063        8.365764
  O           38.489916       15.940329        8.444664
  C           40.888311       16.699547        6.130949
  C           41.602612       16.918597        7.426025
  C           39.499358       16.259216        7.834437
  H           41.062265       17.505381        5.413036
  H           41.146387       15.741676        5.667259
  H           42.605293       16.483073        7.432275
  H           41.668135       17.978388        7.693947
  O           54.941284       27.086801       32.995236
  O           56.464850       28.741971       32.943034
  O           57.152143       26.592881       33.363352
  C           54.289367       28.239464       32.482859
  C           55.183101       29.352635       32.927290
  C           56.266974       27.400137       33.122822
  H           53.276534       28.327158       32.884737
  H           54.238345       28.153446       31.392388
  H           55.164434       30.205523       32.243680
  H           54.950365       29.697332       33.940330
  O            5.204028       44.935383       34.314439
  O            3.523041       46.075407       35.283044
  O            5.175849       45.175398       36.596754
  C            4.478270       45.574395       33.274680
  C            3.165797       45.878519       33.923025
  C            4.679518       45.376739       35.498502
  H            4.376661       44.916870       32.407291
  H            5.019153       46.479616       32.979470
  H            2.689737       46.771882       33.510281
  H            2.466032       45.038088       33.866116
  O           32.868517       29.902040       14.621626
  O           33.548193       30.625500       16.641083
  O           31.928469       29.004463       16.513193
  C           34.021605       30.703787       14.412462
  C           34.104656       31.502945       15.673366
  C           32.710067       29.773878       15.974540
  H           33.906514       31.330353       13.524095
  H           34.884249       30.042782       14.278122
  H           35.131675       31.772087       15.933914
  H           33.492781       32.410341       15.634976
  O           16.448272       26.768740       48.577653
  O           17.255184       25.622572       46.817324
  O           17.235435       24.635519       48.889270
  C           16.118879       27.507682       47.410766
  C           17.070607       26.965033       46.393330
  C           17.001308       25.588593       48.161344
  H           16.247923       28.580318       47.577584
  H           15.073283       27.305730       47.155673
  H           16.667367       27.002695       45.377915
  H           18.040822       27.472421       46.415067
  O           48.851211       54.462167       40.746943
  O           48.946867       56.299114       39.450779
  O           50.894462       55.246330       40.055875
  C           47.523890       54.752984       40.334872
  C           47.611015       56.186346       39.918562
  C           49.675618       55.328530       40.082354
  H           46.816678       54.594875       41.153334
  H           47.265819       54.090129       39.502315
  H           46.897605       56.439391       39.129826
  H           47.478343       56.875305       40.759374
  O           26.215462       27.024015       27.375790
  O           28.211150       27.615073       28.231036
  O           27.376093       25.521909       28.665742
  C           26.589029       28.247362       26.759325
  C           27.621235       28.790091       27.694967
  C           27.276536       26.620052       28.139233
  H           25.726959       28.911123       26.653102
  H           26.997762       28.025805       25.767872
  H           28.367872       29.405675       27.186363
  H           27.180679       29.363541       28.517340
  O            0.515095       37.876550       20.101797
  O            2.180779       36.597724       19.293301
  O            0.164042       36.642863       18.198605
  C            1.692658       38.222947       20.815599
  C            2.583852       37.046025       20.578834
  C            0.887113       37.005650       19.114353
  H            1.475725       38.379887       21.875475
  H            2.097472       39.147033       20.389783
  H            3.643923       37.313034       20.585471
  H            2.410888       36.238529       21.298047
  O           29.654828       21.771608       55.380197
  O           31.613196       20.904867       56.070936
  O           30.678262       20.154021       54.113961
  C           30.109656       22.573703       56.459982
  C           31.100293       21.684668       57.140926
  C           30.651101       20.877178       55.098514
  H           29.280202       22.857234       57.113161
  H           30.571208       23.478195       56.050113
  H           31.898744       22.244996       57.634483
  H           30.630139       21.012258       57.866221
  O           37.012968       26.188767       28.383474
  O           38.611349       24.903552       27.457749
  O           39.177711       26.949319       28.330500
  C           36.440931       24.909406       28.155069
  C           37.361272       24.309424       27.140956
  C           38.343549       26.092345       28.079884
  H           35.414319       24.999376       27.790379
  H           36.440694       24.355626       29.099768
  H           37.415889       23.220092       27.214850
  H           37.094114       24.588383       26.116241
  O           10.683239       46.472268       17.665846
  O           12.092442       44.726727       17.490341
  O            9.831501       44.368621       17.324417
  C           11.995915       47.003290       17.560689
  C           12.856914       45.838722       17.932029
  C           10.782145       45.120434       17.479640
  H           12.128174       47.855408       18.232573
  H           12.156400       47.330173       16.527964
  H           13.832647       45.863071       17.439646
  H           13.001149       45.752943       19.014189
  O           48.985788       26.985107       38.982880
  O           49.343770       28.441853       37.305588
  O           48.183813       29.127911       39.163395
  C           49.916354       26.381744       38.096223
  C           49.724134       27.158103       36.832993
  C           48.782780       28.263861       38.540743
  H           49.704109       25.316614       37.971822
  H           50.921671       26.502727       38.513151
  H           50.635679       27.216569       36.232363
  H           48.911101       26.760186       36.216656
  O           47.956746       48.000055       53.239557
  O           46.324610       47.427375       54.678909
  O           47.430444       49.417966       54.965794
  C           47.295455       46.868407       52.693458
  C           46.597829       46.285505       53.880460
  C           47.253629       48.376836       54.351120
  H           48.011954       46.175562       52.244436
  H           46.596260       47.212689       51.924221
  H           45.674336       45.765602       53.612224
  H           47.240168       45.607641       54.452417
  O            5.947811       32.373079       53.496631
  O            7.226805       30.746524       52.612290
  O            4.972897       30.766044       52.179687
  C            7.301869       32.738641       53.718109
  C            8.027622       31.441477       53.556625
  C            5.958982       31.250736       52.714244
  H            7.432201       33.172600       54.712956
  H            7.590230       33.476658       52.962260
  H            9.046748       31.573268       53.183660
  H            8.055382       30.859073       54.483592
  O           11.421945       14.519966       47.156511
  O           10.270360       16.336825       46.495874
  O           11.885376       15.465648       45.117325
  C           10.347187       14.688662       48.068978
  C            9.956803       16.117182       47.863162
  C           11.250775       15.443058       46.161265
  H           10.668164       14.483712       49.093671
  H            9.547323       13.992490       47.795682
  H            8.895264       16.294914       48.054564
  H           10.553042       16.805862       48.470987
  O            9.865541       51.330612        8.992042
  O           12.011165       50.775733        9.381879
  O           10.807135       49.591198        7.827912
  C           10.423864       52.358520        9.796928
  C           11.628535       51.700262       10.389291
  C           10.887209       50.484037        8.658253
  H            9.710963       52.692069       10.555574
  H           10.683735       53.203176        9.150282
  H           12.435125       52.408222       10.597361
  H           11.394367       51.142048       11.301867
  O           21.252278       19.696060       36.332536
  O           21.320315       21.333050       37.875002
  O           22.260923       21.690885       35.812277
  C           20.401250       19.301941       37.398641
  C           20.868836       20.157960       38.531789
  C           21.665833       20.972255       36.601251
  H           20.504923       18.233944       37.607592
  H           19.365735       19.514528       37.112907
  H           20.070349       20.388872       39.241850
  H           21.713292       19.715073       39.070284
  O           42.067008       45.515507       12.926117
  O           40.772159       47.355506       12.962666
  O           39.862628       45.352401       12.308489
  C           42.803710       46.532383       13.588984
  C           42.112847       47.783697       13.150405
  C           40.813727       46.014048       12.696656
  H           43.856285       46.507779       13.294865
  H           42.727243       46.368432       14.668985
  H           42.168433       48.579111       13.898279
  H           42.494159       48.159631       12.195152
  O           32.631539       50.799180       22.015014
  O           32.942483       50.372639       19.827563
  O           33.077314       52.535900       20.582378
  C           32.735202       49.390075       21.874170
  C           32.453389       49.179085       20.421072
  C           32.899721       51.344823       20.789346
  H           32.017238       48.878462       22.520550
  H           33.750165       49.087204       22.152105
  H           32.965763       48.302365       20.016197
  H           31.381813       49.100110       20.209604
  O           27.309931       21.182875       45.531657
  O           26.059694       22.972324       44.985448
  O           28.347969       23.133926       44.912594
  C           25.965569       20.737892       45.427548
  C           25.184435       22.006919       45.549321
  C           27.332068       22.488777       45.124176
  H           25.728633       20.020588       46.217715
  H           25.833654       20.256957       44.452648
  H           24.237378       21.971842       45.004398
  H           24.990720       22.280888       46.591745
  O           53.828760       57.865269        6.595788
  O           52.170394       57.554992        8.084787
  O           53.205273       55.728846        7.156433
  C           53.546590       59.129591        7.177193
  C           52.179435       58.934863        7.750255
  C           53.079442       56.939070        7.268535
  H           53.578414       59.922010        6.424807
  H           54.298209       59.333092        7.947118
  H           52.001955       59.552943        8.634318
  H           51.387751       59.119328        7.016469
  O           41.685240       60.002761       17.140094
  O           41.913077       58.984744       19.133909
  O           39.888617       59.904146       18.564799
  C           42.934213       59.327492       17.124728
  C           43.213305       59.110546       18.577475
  C           41.055706       59.653703       18.303604
  H           43.700750       59.933852       16.635059
  H           42.813701       58.387216       16.576561
  H           43.806582       58.211085       18.762087
  H           43.707847       59.970279       19.041715
  O           56.264322       53.393544       57.517870
  O           54.109895       53.504120       58.158012
  O           54.712083       52.059931       56.478932
  C           56.220903       54.165224       58.708998
  C           54.787638       54.584573       58.781971
  C           55.002194       52.908508       57.308868
  H           56.905471       55.015430       58.649465
  H           56.513112       53.525160       59.548082
  H           54.441478       54.722337       59.809727
  H           54.588548       55.496419       58.209143
  O           21.340144        3.023744       27.150792
  O           23.383909        3.954189       27.295238
  O           21.534025        5.309897       27.208014
  C           22.257465        1.976939       27.431653
  C           23.571472        2.570758       27.036438
  C           22.039811        4.197629       27.216904
  H           22.012748        1.078308       26.859287
  H           22.206170        1.748171       28.501308
  H           24.405533        2.173011       27.620586
  H           23.784824        2.442936       25.969960
  O           19.424251       41.699400       10.542658
  O           18.707091       43.460927       11.745268
  O           19.151902       41.477322       12.810668
  C           19.464925       42.833236        9.688889
  C           18.553282       43.799492       10.374956
  C           19.098969       42.150892       11.792561
  H           19.125434       42.577012        8.681853
  H           20.497611       43.194236        9.640250
  H           18.832452       44.841115       10.195581
  H           17.503964       43.654459       10.097236
  O           28.287733       38.427029       43.758401
  O           29.806640       38.354427       42.099722
  O           30.451699       39.060906       44.185965
  C           27.688411       37.736140       42.672286
  C           28.531967       38.148981       41.508926
  C           29.593724       38.651800       43.418142
  H           26.640509       38.024748       42.555523
  H           27.746219       36.660766       42.870675
  H           28.580201       37.382226       40.731206
  H           28.199152       39.092898       41.064531
  O           33.162736       58.242508       25.480121
  O           33.360950       60.001970       24.091391
  O           34.899111       59.714942       25.770468
  C           32.246010       58.040013       24.414865
  C           32.093766       59.412308       23.841228
  C           33.898867       59.353055       25.169144
  H           31.301698       57.631133       24.783809
  H           32.690380       57.335852       23.703655
  H           31.873120       59.398587       22.770614
  H           31.328935       60.000225       24.359512
  O           20.630763       37.363574       57.084488
  O           18.717605       36.215845       56.791042
  O           20.709604       35.079175       56.877926
  C           19.560751       38.268776       57.312177
  C           18.405594       37.593317       56.645245
  C           20.077164       36.124041       56.914205
  H           19.779941       39.249648       56.882209
  H           19.417979       38.372630       58.392899
  H           17.449220       37.830111       57.118919
  H           18.345652       37.824415       55.576492
  O           18.058831       20.242843       49.562641
  O           18.735019       18.098311       49.477110
  O           20.217805       19.720060       50.139604
  C           16.899988       19.446352       49.365551
  C           17.463155       18.161238       48.849067
  C           19.105640       19.384452       49.760796
  H           16.215317       19.920373       48.657345
  H           16.394465       19.324614       50.329271
  H           16.851195       17.295946       49.117139
  H           17.612039       18.175413       47.764232
  O           20.289425       51.227269       19.587975
  O           19.686014       49.062740       19.468493
  O           18.066134       50.687474       19.406432
  C           21.477191       50.471441       19.403318
  C           21.062921       49.094696       19.813665
  C           19.239871       50.356106       19.481105
  H           22.291378       50.866151       20.016775
  H           21.762437       50.525595       18.347463
  H           21.616820       48.313889       19.285816
  H           21.153977       48.934392       20.893129
  O           20.437606       52.487855       29.989294
  O           19.893382       53.593555       31.872062
  O           18.336862       52.231474       30.877273
  C           21.636066       53.044725       30.508669
  C           21.136055       54.115078       31.425056
  C           19.453751       52.725988       30.909747
  H           22.264687       53.438313       29.705581
  H           22.181681       52.258756       31.041288
  H           21.809624       54.296705       32.266724
  H           20.948601       55.059282       30.902972
  O           52.430264       48.713851       28.796305
  O           54.199084       47.402188       28.691059
  O           52.439479       46.773548       30.040741
  C           52.968314       47.549792       29.256537
  C           51.126006       49.030865       29.293596
  C           54.914696       46.221374       29.068166
  H           50.410948       48.255521       29.002213
  H           50.814408       49.980120       28.849945
  H           51.152692       49.143588       30.381689
  H           55.876723       46.226352       28.548751
  H           54.357777       45.328763       28.767374
  H           55.098080       46.217915       30.146794
  O            8.827935       13.684597       24.137510
  O            8.233138       15.657978       23.355050
  O           10.380081       15.388763       24.149531
  C            9.262270       14.954985       23.905536
  C            9.789868       12.799504       24.720759
  C            8.515853       17.026349       23.044785
  H           10.651497       12.685561       24.055942
  H            9.317045       11.822775       24.852839
  H           10.103460       13.173337       25.700184
  H            7.614658       17.470437       22.613569
  H            9.324305       17.088835       22.310012
  H            8.776694       17.574937       23.954782
  O           45.742475       50.316656        5.640052
  O           45.707188       48.755270        7.196038
  O           43.716112       49.734737        6.572096
  C           44.930198       49.614411        6.478745
  C           45.086600       51.275677        4.803995
  C           45.011019       47.931298        8.136809
  H           44.367648       50.776522        4.147244
  H           45.845303       51.764031        4.186837
  H           44.589745       52.034595        5.415995
  H           45.744427       47.295523        8.640015
  H           44.288911       47.292549        7.619169
  H           44.511125       48.551817        8.886571
  O           35.491237       54.904265       17.872341
  O           33.917655       56.156886       16.969546
  O           35.654145       57.194710       18.074338
  C           35.080306       56.188853       17.679169
  C           36.709004       54.749120       18.608450
  C           33.338500       57.432149       16.674727
  H           37.535630       55.232641       18.079048
  H           36.922634       53.680213       18.690939
  H           36.598558       55.164005       19.614947
  H           32.419061       57.265036       16.107260
  H           34.024442       58.027659       16.064611
  H           33.088659       57.957923       17.601130
  O           47.567275       47.968100       47.514401
  O           46.339320       49.755424       47.117082
  O           47.505131       48.808200       45.368742
  C           47.171375       48.840367       46.545504
  C           48.454812       46.929972       47.086089
  C           45.824619       50.758295       46.235059
  H           47.971049       46.307432       46.327283
  H           48.692047       46.306619       47.952204
  H           49.382950       47.361151       46.698779
  H           45.177784       51.421867       46.815224
  H           45.231071       50.295549       45.440732
  H           46.643870       51.347753       45.812628
  O           42.272813       16.277776       13.660021
  O           40.534915       15.635005       12.465527
  O           41.336503       17.777293       12.180746
  C           41.377433       16.676606       12.713672
  C           43.241993       17.257965       14.045772
  C           39.519537       15.881193       11.487247
  H           43.852230       17.546408       13.184504
  H           43.892456       16.813174       14.803441
  H           42.745328       18.131820       14.478283
  H           38.918665       14.973552       11.385002
  H           39.974399       16.112170       10.519187
  H           38.868981       16.697985       11.813913
  O           18.815753       39.154526       16.800294
  O           17.020742       37.883946       16.954650
  O           16.744525       40.166102       16.785808
  C           17.453976       39.170693       16.840910
  C           19.445667       40.434417       16.682099
  C           15.600879       37.712924       17.012720
  H           19.141890       40.921300       15.750415
  H           20.527685       40.280192       16.660778
  H           19.196899       41.060006       17.544722
  H           15.390561       36.643815       17.102639
  H           15.136621       38.086212       16.094837
  H           15.193151       38.225867       17.888922
  O           37.149559       16.425483       53.495555
  O           35.350267       15.755942       54.579309
  O           35.172118       17.560407       53.156210
  C           35.823530       16.671912       53.688598
  C           37.814362       17.302976       52.580717
  C           33.960402       15.868866       54.902044
  H           37.365429       17.223591       51.585967
  H           38.862336       16.998306       52.518021
  H           37.769402       18.333998       52.944497
  H           33.712972       15.082120       55.619764
  H           33.350606       15.729622       54.004186
  H           33.756079       16.840442       55.361799
  O           59.932289       21.360627       55.970287
  O           59.932224       19.156664       56.023298
  O           57.912839       20.262018       56.138709
  C           59.133406       20.260012       56.052631
  C           59.252659       22.620251       55.988584
  C           59.252520       17.899516       56.102129
  H           58.576657       22.698188       55.131661
  H           60.002646       23.412336       55.916999
  H           58.703212       22.740471       56.927210
  H           60.002567       17.104763       56.068804
  H           58.576512       17.780410       55.249946
  H           58.703160       17.824491       57.045345
  O           10.293714       23.493312       38.626531
  O           12.427890       23.995529       38.395597
  O           10.906961       25.715203       38.601839
  C           11.181270       24.523996       38.547275
  C            8.922243       23.869912       38.788155
  C           13.493500       24.945628       38.293510
  H            8.790104       24.427660       39.720264
  H            8.322550       22.957251       38.837372
  H            8.589041       24.463447       37.931383
  H           14.430413       24.394465       38.176351
  H           13.552165       25.548275       39.204972
  H           13.349393       25.583553       37.416375
  O           46.949263       58.017287       21.593924
  O           47.325561       57.763247       23.751266
  O           48.962640       58.738225       22.454181
  C           47.859299       58.225972       22.586210
  C           47.349074       58.447041       20.288418
  C           48.155077       57.902905       24.909295
  H           47.528456       59.526470       20.283580
  H           46.535868       58.223398       19.592943
  H           48.243962       57.904525       19.968703
  H           47.612754       57.496224       25.767088
  H           48.368102       58.959623       25.097332
  H           49.083171       57.337934       24.780722
  O           42.377035       29.679436       47.668719
  O           40.655759       29.343405       49.004590
  O           41.042416       27.835620       47.304554
  C           41.329107       28.848361       47.928542
  C           43.199887       29.307679       46.558046
  C           39.513033       28.587924       49.419389
  H           43.654404       28.328104       46.734731
  H           43.995380       30.051084       46.460357
  H           42.610718       29.300362       45.635988
  H           39.069181       29.089526       50.283510
  H           39.813660       27.578307       49.715506
  H           38.771461       28.550867       48.615784
  O           52.811143        1.754608       27.637941
  O           51.402160        1.239544       29.253409
  O           51.702623        3.461714       28.719816
  C           51.946631        2.274227       28.553889
  C           53.480278        2.710044       26.808311
  C           50.462334        1.606812       30.268531
  H           52.752054        3.275591       26.219061
  H           54.137645        2.165851       26.125137
  H           54.088909        3.382578       27.420382
  H           50.105335        0.691684       30.748538
  H           49.608141        2.126310       29.823710
  H           50.946093        2.233614       31.023632
  O           14.639455       31.102108       13.992633
  O           14.969690       33.244944       13.593306
  O           12.848720       32.386137       13.315861
  C           14.030819       32.257654       13.604531
  C           13.792731       29.949937       14.059294
  C           14.500071       34.539742       13.203965
  H           12.995307       30.107988       14.791758
  H           14.400246       29.099608       14.380027
  H           13.373932       29.730180       13.072542
  H           15.345471       35.232211       13.237113
  H           13.732172       34.889371       13.900728
  H           14.110603       34.509824       12.181956
  O            7.653323       38.710105        5.254433
  O            7.148126       40.842359        5.012500
  O            8.888298       39.974630        3.774806
  C            7.988987       39.854604        4.595800
  C            8.443010       37.559548        4.935847
  C            7.360914       42.126688        4.417644
  H            8.342473       37.313449        3.874387
  H            8.072548       36.718395        5.527644
  H            9.491419       37.736391        5.194555
  H            6.626703       42.820760        4.835392
  H            7.215210       42.071221        3.334555
  H            8.364432       42.492388        4.654914
  O           48.802018       10.676196       54.287735
  O           50.978944       10.506752       54.591944
  O           49.781545        8.597212       54.109315
  C           49.847394        9.802645       54.308794
  C           47.522200       10.101570       54.003560
  C           52.185025        9.738633       54.655154
  H           47.525494        9.642320       53.010359
  H           46.779025       10.903139       54.017000
  H           47.259056        9.365638       54.769409
  H           53.009214       10.418288       54.887736
  H           52.382944        9.264235       53.689150
  H           52.114749        8.987805       55.447871
  O           25.518534       40.606757       45.501760
  O           23.787428       40.357914       44.159520
  O           24.671348       38.487794       45.176563
  C           24.660092       39.693390       44.967735
  C           26.513679       40.077395       46.383999
  C           22.805769       39.544389       43.509014
  H           26.039331       39.598979       47.246253
  H           27.130107       40.907654       46.738529
  H           27.153390       39.367533       45.850865
  H           22.175871       40.195568       42.897043
  H           22.176653       39.043726       44.251266
  H           23.292063       38.812595       42.857035
  O           54.932765       27.255743       48.366355
  O           56.922377       26.411722       47.931234
  O           55.087881       25.020045       47.826840
  C           55.595341       26.116367       48.021156
  C           53.514148       27.127025       48.507217
  C           57.775760       25.319191       47.575218
  H           53.066025       26.817175       47.558245
  H           53.109829       28.104340       48.783600
  H           53.275710       26.411277       49.299818
  H           58.804006       25.688882       47.538429
  H           57.505517       24.933883       46.587344
  H           57.713608       24.528786       48.329192
  O            1.612440       20.656927       14.217996
  O            2.356391       19.397190       15.867195
  O            1.479213       21.468252       16.371478
  C            1.784285       20.597057       15.568266
  C            1.018320       21.861665       13.723513
  C            2.611812       19.163394       17.255983
  H            0.014763       21.987942       14.141000
  H            0.938327       21.779984       12.636345
  H            1.649375       22.722182       13.965681
  H            3.067575       18.174678       17.356154
  H            1.674766       19.177045       17.820916
  H            3.308705       19.912202       17.644194
  O           37.993462       28.637004       10.413064
  O           37.070434       30.598982       10.811717
  O           35.824579       28.697213       11.191398
  C           36.856675       29.253712       10.841706
  C           37.945555       27.206806       10.379570
  C           35.968494       31.409227       11.233456
  H           37.771766       26.810178       11.384484
  H           38.911803       26.842533       10.020858
  H           37.165260       26.870099        9.690270
  H           36.270218       32.457616       11.161649
  H           35.712183       31.188007       12.274011
  H           35.106549       31.246369       10.579537
  O           14.928877       45.294183       52.301694
  O           12.895236       46.122229       52.104439
  O           13.136678       43.846737       52.381718
  C           13.605359       44.971877       52.274038
  C           15.829144       44.194716       52.473666
  C           11.473227       45.968331       52.051160
  H           15.640489       43.696877       53.429666
  H           16.849130       44.587924       52.478126
  H           15.728226       43.489217       51.643334
  H           11.029047       46.957808       51.913489
  H           11.102757       45.544523       52.989525
  H           11.192188       45.336290       51.203444
  O            5.516963       45.789050       15.592209
  O            7.673070       45.402881       15.342529
  O            6.357720       45.570251       13.457089
  C            6.501161       45.586096       14.672149
  C            4.205809       46.000111       15.058156
  C            8.824039       45.172964       14.523359
  H            4.192699       46.895676       14.429537
  H            3.517792       46.148469       15.894593
  H            3.883019       45.123007       14.489070
  H            9.688401       45.043184       15.180130
  H            9.003693       46.034003       13.872417
  H            8.692282       44.261749       13.932250
  O           27.773270        3.872667        2.664714
  O           29.930846        3.468099        2.461112
  O           28.442380        1.771160        1.994309
  C           28.689951        2.919195        2.337705
  C           26.403421        3.464174        2.590348
  C           31.024798        2.597620        2.154246
  H           26.151063        3.170092        1.567019
  H           25.778934        4.315056        2.874989
  H           26.215201        2.641629        3.287024
  H           31.953777        3.157280        2.292418
  H           30.965336        2.267368        1.112715
  H           31.027729        1.739358        2.832818
  O           18.794739       50.227401       36.641654
  O           17.894154       51.810306       35.399228
  O           17.074804       49.663806       35.214186
  C           17.842026       50.482861       35.701747
  C           18.882153       48.867305       37.079124
  C           16.953163       52.257777       34.417935
  H           17.940140       48.557004       37.541396
  H           19.677964       48.800711       37.825618
  H           19.134018       48.214398       36.237910
  H           17.100688       53.330913       34.269857
  H           15.930635       52.088994       34.769129
  H           17.125244       51.745181       33.466769
  O           10.906570       14.547309       17.707219
  O           12.989327       14.537119       16.984528
  O           11.437920       13.226601       15.894244
  C           11.746094       14.022020       16.771475
  C            9.545805       14.109693       17.631761
  C           14.006925       14.087867       16.083807
  H            9.109157       14.394961       16.669821
  H            8.985552       14.601787       18.431113
  H            9.487688       13.026728       17.777274
  H           14.946291       14.572613       16.362958
  H           13.756483       14.372224       15.057255
  H           14.133318       13.004140       16.165308
  O           36.833278       13.463671       31.588747
  O           38.132604       11.716972       31.240816
  O           37.476397       12.190043       33.399204
  C           37.480087       12.431840       32.199738
  C           36.089802       14.326772       32.455456
  C           38.872869       10.585465       31.710212
  H           35.302593       13.763797       32.966075
  H           35.624691       15.104276       31.843767
  H           36.757670       14.802430       33.180070
  H           39.343347       10.105433       30.847928
  H           38.201825        9.866328       32.189724
  H           39.655760       10.906350       32.403894
  O           37.308660        3.837050       56.292661
  O           35.984267        5.052576       55.016440
  O           38.261064        5.381189       54.870676
  C           37.285198        4.814989       55.344278
  C           38.608314        3.458715       56.758114
  C           35.771555        6.062286       54.024537
  H           39.206380        3.063619       55.931321
  H           38.485416        2.673574       57.508750
  H           39.107888        4.314100       57.222986
  H           34.695015        6.152341       53.856412
  H           36.251215        5.775864       53.083645
  H           36.153730        7.025236       54.376319
  O           22.921712       34.268681       35.117729
  O           21.382619       34.806177       33.633628
  O           22.278850       36.475661       34.946120
  C           22.202520       35.304180       34.601152
  C           23.842609       34.614042       36.157708
  C           20.545980       35.765320       32.978869
  H           24.591823       35.317418       35.781794
  H           24.349428       33.700736       36.480214
  H           23.307005       35.039004       37.012050
  H           19.944583       35.238896       32.232871
  H           21.157592       36.516750       32.470270
  H           19.874096       36.237817       33.701641
  O           24.032172       30.502642       33.213760
  O           21.907337       30.900058       33.646654
  O           22.730518       28.779769       34.020537
  C           22.875228       29.941293       33.663999
  C           25.164743       29.628718       33.164528
  C           20.613494       30.479955       34.091758
  H           25.402183       29.259854       34.166990
  H           26.018391       30.199229       32.789286
  H           24.971115       28.796039       32.481506
  H           19.937260       31.336673       34.028075
  H           20.660965       30.146622       35.132923
  H           20.231668       29.682603       33.447150
  O           29.773228        9.413945       24.571101
  O           30.965988       11.183656       24.018193
  O           32.030422        9.146199       24.187865
  C           31.026506        9.842777       24.252127
  C           29.651326        8.015617       24.851644
  C           32.206134       11.806217       23.667354
  H           29.935431        7.427200       23.973909
  H           28.605245        7.806672       25.090517
  H           30.269007        7.747170       25.714066
  H           32.018769       12.871529       23.508238
  H           32.596876       11.376019       22.740186
  H           32.929378       11.694583       24.480704
  O           55.200294       12.623679       23.648851
  O           55.987197       10.564631       23.685810
  O           56.769001       12.071511       25.245019
  C           56.058412       11.782941       24.291610
  C           55.147139       13.960292       24.158286
  C           56.832630        9.549954       24.237449
  H           54.809931       13.955569       25.199266
  H           54.427580       14.524240       23.558952
  H           56.127749       14.437987       24.071246
  H           56.679652        8.631402       23.664585
  H           56.565774        9.361144       25.281733
  H           57.882819        9.845192       24.153667
  O           23.616747       16.131833       55.729705
  O           25.636275       16.985096       55.961458
  O           25.422808       14.699646       55.751248
  C           24.941493       15.823174       55.807963
  C           22.731555       15.018884       55.566416
  C           27.057244       16.846514       56.062815
  H           22.953618       14.492243       54.633298
  H           21.708875       15.402036       55.518225
  H           22.813005       14.341560       56.421964
  H           27.488566       17.844094       56.181589
  H           27.459861       16.396158       55.150417
  H           27.317568       16.244878       56.938799
  O           31.586131       26.055942       11.746291
  O           32.463489       24.412231       12.924730
  O           32.604843       26.559041       13.751933
  C           32.253979       25.758196       12.895932
  C           31.281090       27.440578       11.549778
  C           33.160329       23.919863       14.073912
  H           30.633465       27.803385       12.353721
  H           30.750046       27.540222       10.599480
  H           32.202901       28.028106       11.500390
  H           33.261037       22.835991       13.971966
  H           32.591144       24.135716       14.983211
  H           34.159748       24.361700       14.128896
  O           30.250690       28.181774       30.489455
  O           29.165469       29.272646       32.068239
  O           31.276332       28.472013       32.533300
  C           30.328578       28.626499       31.774951
  C           31.397901       27.472298       30.010463
  C           29.073432       29.808868       33.392107
  H           32.279610       28.120000       30.031452
  H           31.206054       27.174231       28.976367
  H           31.564322       26.572409       30.610354
  H           28.100115       30.296149       33.494696
  H           29.858119       30.554098       33.554245
  H           29.143679       29.005716       34.131764
  O            8.238847       31.908300       39.473638
  O            6.344256       31.846878       40.599253
  O            6.287327       32.460589       38.378182
  C            6.894303       32.107923       39.380381
  C            8.982749       32.140372       38.272956
  C            4.924665       32.008811       40.683946
  H            8.650837       31.458454       37.484164
  H           10.037685       31.946164       38.483663
  H            8.873865       33.181833       37.955360
  H            4.615567       31.770447       41.705197
  H            4.423369       31.321402       39.995789
  H            4.647981       33.044706       40.466121
  O           59.869564        7.956947       55.520390
  O           59.896044       10.157887       55.644581
  O           57.885331        9.099963       55.256156
  C           59.092606        9.074192       55.453691
  C           59.182237        6.714567       55.338848
  C           59.238955       11.428827       55.604856
  H           58.428907        6.580825       56.121137
  H           59.914537        5.906532       55.415136
  H           58.721100        6.678309       54.347181
  H           59.990436       12.205461       55.770478
  H           58.487993       11.491858       56.398249
  H           58.780247       11.587538       54.624306
  O           15.322189       36.270484       10.705021
  O           13.395450       37.126921       11.348801
  O           13.799443       36.895508        9.091307
  C           14.137460       36.776263       10.261231
  C           16.234401       35.848432        9.685890
  C           12.107459       37.682860       11.064823
  H           15.790860       35.045108        9.089811
  H           17.135761       35.467247       10.172976
  H           16.510044       36.695258        9.050067
  H           11.621645       37.918387       12.015520
  H           11.491660       36.956105       10.526299
  H           12.212405       38.605455       10.486128
  O           10.693769       53.701049       34.763175
  O            9.107695       53.945193       33.251546
  O           10.522992       55.718002       33.660354
  C           10.147098       54.572582       33.869908
  C           11.808373       54.199713       35.510086
  C            8.411113       54.722654       32.272281
  H           12.628714       54.463186       34.835554
  H           12.148080       53.408198       36.183218
  H           11.506588       55.064519       36.108752
  H            7.608762       54.106861       31.857136
  H            9.089652       55.007954       31.462603
  H            7.968852       55.608961       32.736982
  O           52.379846       48.832002       11.266337
  O           52.367292       48.450821        9.094977
  O           52.130904       46.662101       10.529426
  C           52.277279       47.858491       10.318656
  C           52.306130       48.383340       12.623596
  C           52.279238       47.566875        7.972694
  H           51.339447       47.906813       12.812848
  H           52.400966       49.255581       13.275675
  H           53.126967       47.692611       12.839202
  H           52.365147       48.164753        7.061390
  H           51.311434       47.056269        7.967817
  H           53.098876       46.842488        7.995925
  O           47.001447        5.573207       36.655309
  O           45.762220        7.380207       36.898879
  O           48.053389        7.618046       36.815103
  C           47.043066        6.928189       36.791827
  C           48.271722        4.925490       36.529817
  C           45.617384        8.795959       37.051529
  H           48.792205        5.282735       35.636037
  H           48.097037        3.851167       36.428226
  H           48.875895        5.100048       37.425289
  H           44.550384        9.022601       37.125404
  H           46.027075        9.314757       36.179524
  H           46.111689        9.130549       37.968476
  O           51.816714       21.585461       23.267719
  O           49.841768       22.563735       23.214504
  O           49.931497       20.260498       23.205194
  C           50.474143       21.356968       23.227204
  C           52.642262       20.416253       23.285216
  C           48.412066       22.511648       23.171233
  H           52.431510       19.817285       24.176389
  H           53.686560       20.737819       23.317510
  H           52.483958       19.827298       22.376681
  H           48.034461       23.537655       23.165114
  H           48.024746       22.000142       24.057649
  H           48.078848       22.009444       22.258086
  O            6.145107       55.605832       42.291630
  O            5.408067       57.662003       42.590287
  O            4.038841       55.903853       43.179496
  C            5.089310       56.345088       42.733376
  C            5.980734       54.186013       42.368947
  C            4.402045       58.590187       43.008648
  H            5.836512       53.877655       43.408891
  H            6.891305       53.717001       41.986989
  H            5.135874       53.868378       41.750331
  H            4.781999       59.601642       42.841592
  H            4.191929       58.465659       44.075294
  H            3.492018       58.454740       42.416545
  O            4.248982       29.038650       40.811426
  O            6.396947       29.533893       40.776181
  O            5.773037       27.321383       40.607143
  C            5.500952       28.509030       40.719668
  C            3.174008       28.094427       40.769519
  C            7.774800       29.155202       40.694027
  H            3.181993       27.553618       39.818293
  H            2.233695       28.645843       40.851725
  H            3.248036       27.398760       41.610905
  H            8.380992       30.063279       40.750965
  H            7.974822       28.658669       39.739650
  H            8.039085       28.503513       41.532200
  O           53.830906       35.822741       35.832906
  O           53.685137       34.231492       34.314044
  O           53.403745       33.667920       36.531305
  C           53.617587       34.489533       35.650157
  C           53.795680       36.273717       37.190942
  C           53.483452       32.865373       33.937647
  H           52.810464       36.083705       37.627535
  H           53.979915       37.351230       37.196291
  H           54.579170       35.780442       37.774198
  H           53.562849       32.797246       32.849360
  H           52.485203       32.533097       34.238448
  H           54.253948       32.231217       34.386270
  O           38.837951       34.525362        9.399652
  O           40.169853       32.774749        9.546795
  O           39.096853       33.506481       11.451074
  C           39.342629       33.593112       10.255546
  C           37.941038       35.477125        9.981527
  C           40.793879       31.727433       10.296696
  H           37.063923       34.968423       10.392941
  H           37.612929       36.160712        9.194089
  H           38.452858       36.054646       10.757332
  H           41.424830       31.150655        9.615123
  H           40.035842       31.062219       10.721266
  H           41.423632       32.149818       11.085419
  O           37.376923       29.395315       21.489009
  O           35.510037       30.177761       22.362380
  O           35.370589       28.517837       20.769193
  C           36.019119       29.284450       21.468413
  C           38.081756       28.522054       20.600465
  C           34.083016       30.197999       22.471166
  H           37.880544       27.477615       20.857428
  H           39.152186       28.711702       20.715434
  H           37.797985       28.727175       19.563757
  H           33.809347       30.951135       23.214942
  H           33.714897       29.223513       22.806212
  H           33.633921       30.472427       21.511956
  O           42.836652       21.589300       24.337707
  O           43.726830       23.597773       24.521773
  O           45.078825       21.759105       24.844960
  C           43.992671       22.263418       24.593695
  C           42.933068       20.161598       24.373145
  C           44.839767       24.463608       24.767402
  H           43.637863       19.810753       23.613184
  H           41.945215       19.748517       24.152884
  H           43.239554       19.827365       25.368996
  H           44.492727       25.496658       24.679745
  H           45.624148       24.292328       24.023897
  H           45.225045       24.307340       25.779441
  O           22.659349       21.092355        7.777372
  O           23.228273       23.221532        7.720857
  O           24.584087       21.689811        6.658483
  C           23.592494       21.972155        7.317438
  C           22.887019       19.719260        7.443216
  C           24.105615       24.279809        7.322166
  H           22.885755       19.588772        6.356781
  H           22.073188       19.126302        7.868755
  H           23.833216       19.376786        7.873086
  H           23.701377       25.219857        7.707152
  H           24.155214       24.339677        6.230678
  H           25.102077       24.125987        7.746999
  O           47.749098       15.457987       44.353916
  O           49.437220       16.829333       43.993477
  O           49.711236       14.592643       43.508531
  C           49.035312       15.530142       43.910302
  C           47.161777       14.152752       44.336581
  C           50.777616       17.090081       43.564547
  H           47.128946       13.765920       43.313521
  H           46.138971       14.235093       44.713532
  H           47.723002       13.476288       44.988338
  H           50.970226       18.159844       43.682110
  H           50.895710       16.825852       42.509262
  H           51.488299       16.535194       44.184314
  O           51.591178       18.317764       35.548791
  O           51.484242       16.199114       36.148916
  O           53.316249       17.437714       36.799041
  C           52.241113       17.329472       36.224964
  C           52.251263       19.587653       35.525273
  C           52.022214       15.049652       36.810698
  H           52.368120       19.972507       36.542918
  H           51.629356       20.283648       34.956215
  H           53.223364       19.500025       35.030596
  H           51.323273       14.220196       36.673595
  H           52.129510       15.245090       37.881997
  H           52.984707       14.774356       36.369221
  O           54.894845       44.269684       45.408172
  O           56.963446       44.608080       46.091283
  O           56.591485       43.053361       44.430700
  C           56.191146       43.891014       45.227735
  C           53.936517       43.609531       44.574692
  C           58.367316       44.334352       46.037868
  H           54.145946       43.815451       43.520601
  H           52.945913       44.002121       44.818785
  H           53.944933       42.532490       44.767761
  H           58.866049       44.970581       46.773932
  H           58.761686       44.570525       45.044850
  H           58.558963       43.287428       46.291448
  O           15.208153       15.536822       44.181306
  O           16.275417       14.488807       45.800834
  O           16.961386       16.611967       45.222322
  C           16.224018       15.645533       45.082719
  C           15.009760       16.673197       43.333852
  C           17.295764       14.428421       46.802770
  H           14.761000       17.553954       43.933648
  H           14.172794       16.456484       42.664877
  H           15.903858       16.856014       42.730089
  H           17.227226       13.457026       47.299768
  H           17.142422       15.215482       47.547358
  H           18.284285       14.518357       46.342532
  O           34.370214       29.301688       42.403503
  O           33.226611       29.684245       40.557946
  O           34.744626       31.269268       41.262484
  C           34.172945       30.195484       41.394266
  C           35.341132       29.681495       43.384293
  C           32.891613       30.500907       39.431237
  H           36.323742       29.800971       42.917845
  H           35.401243       28.884216       44.129771
  H           35.034270       30.606056       43.882677
  H           32.128218       29.979025       38.847988
  H           33.771980       30.654585       38.799789
  H           32.483467       31.459226       39.766085
  O           27.503162       53.674593       50.089845
  O           25.407759       53.025560       49.870066
  O           27.084565       51.521735       49.380298
  C           26.704354       52.626750       49.743036
  C           28.911398       53.430035       50.012739
  C           24.423191       52.039850       49.541987
  H           29.193432       52.622844       50.695578
  H           29.432025       54.342713       50.314355
  H           29.197580       53.185548       48.985271
  H           23.435108       52.485348       49.685298
  H           24.517887       51.174633       50.205177
  H           24.523715       51.737925       48.495174
  O           18.553942       45.359417       18.130454
  O           17.687310       44.764464       20.068299
  O           16.625820       44.096162       18.134481
  C           17.529500       44.679663       18.717651
  C           18.545211       45.374731       16.699170
  C           16.688946       44.100384       20.849899
  H           18.623504       44.355354       16.309158
  H           19.412177       45.947716       16.359963
  H           17.636748       45.861218       16.331217
  H           16.931961       44.245138       21.905978
  H           16.689758       43.027816       20.633138
  H           15.703838       44.534129       20.653661
  O            3.883134       29.325606       47.631476
  O            2.600238       31.082132       47.990720
  O            1.626972       28.992820       47.966844
  C            2.603018       29.724752       47.872996
  C            4.072042       27.915061       47.477982
  C            1.324168       31.677417       48.247459
  H            3.782236       27.392313       48.394561
  H            5.133454       27.732549       47.290633
  H            3.496068       27.546622       46.623658
  H            1.461966       32.759663       48.318658
  H            0.919666       31.311709       49.196155
  H            0.634641       31.464635       47.425049
  O           23.741583       11.150174       32.874315
  O           23.900296       13.272750       32.300081
  O           25.169125       12.511183       34.067319
  C           24.354467       12.329918       33.172516
  C           24.104154       10.039242       33.700907
  C           24.444106       14.585652       32.470939
  H           25.174557        9.831829       33.608243
  H           23.546201        9.163942       33.358062
  H           23.837548       10.239746       34.743061
  H           24.000284       15.238603       31.714639
  H           25.528699       14.568005       32.326937
  H           24.191567       14.974151       33.462087
  O           10.324862       40.444660       27.898754
  O           11.543105       41.224358       29.562550
  O            9.460496       42.142026       29.196946
  C           10.350966       41.351512       28.915260
  C            9.133600       40.440093       27.105181
  C           11.742991       42.110152       30.668917
  H            8.266534       40.193069       27.725298
  H            9.242374       39.673998       26.332995
  H            8.998211       41.411405       26.619808
  H           12.729006       41.905439       31.094570
  H           10.984840       41.932837       31.437784
  H           11.715555       43.150404       30.330973
  O           10.448096       53.148241       19.019038
  O           12.048051       51.782827       18.358697
  O           12.334078       54.048602       18.046463
  C           11.677769       53.091800       18.435031
  C            9.899714       54.460691       19.179145
  C           13.326707       51.536069       17.764742
  H           10.545540       55.064832       19.823577
  H            8.920403       54.364266       19.655229
  H            9.770436       54.938701       18.203359
  H           13.499258       50.456468       17.765326
  H           14.115575       52.018137       18.350136
  H           13.339154       51.893049       16.730580
  O           45.345457       43.754979       37.501617
  O           45.432163       41.564623       37.736315
  O           47.369875       42.693626       37.203714
  C           46.172527       42.673254       37.454991
  C           45.962600       45.016975       37.227053
  C           46.148317       40.325384       37.729761
  H           46.741810       45.226168       37.966269
  H           45.195643       45.792826       37.296589
  H           46.377816       45.023168       36.214669
  H           45.443669       39.524179       37.968202
  H           46.935279       40.338751       38.489960
  H           46.571137       40.137549       36.738286
  O           42.106567       58.516170       44.684760
  O           43.352164       57.829980       43.000156
  O           44.390555       58.405834       44.975802
  C           43.386441       58.264878       44.290906
  C           41.954542       58.987088       46.027894
  C           44.622525       57.517315       42.419589
  H           42.325275       58.239294       46.735518
  H           40.889282       59.147836       46.213328
  H           42.481092       59.937470       46.157833
  H           44.454015       57.184093       41.392029
  H           45.104618       56.708172       42.976603
  H           45.259328       58.406803       42.400269
  O           57.555089       36.287912       30.300697
  O           56.681417       38.307044       30.442348
  O           55.298392       36.485188       30.727174
  C           56.398435       36.976125       30.512501
  C           57.441256       34.861561       30.338738
  C           55.569911       39.186400       30.642145
  H           57.096014       34.535468       31.324558
  H           58.431544       34.436416       30.155475
  H           56.759803       34.515057       29.555845
  H           55.931231       40.215058       30.560754
  H           55.146559       39.040826       31.640629
  H           54.811170       39.018807       29.871881
  O           37.340304       22.247283       31.259386
  O           35.977330       22.806024       32.899621
  O           36.611497       20.599269       32.696873
  C           36.640358       21.764272       32.323868
  C           38.102011       21.279358       30.530134
  C           35.182614       22.476142       34.043403
  H           38.855721       20.823483       31.179340
  H           38.610041       21.793972       29.710327
  H           37.440624       20.515840       30.109454
  H           34.709233       23.393125       34.404466
  H           35.814468       22.070220       34.839252
  H           34.400565       21.762234       33.768056
  O           57.571721       35.063387       14.255457
  O           58.417257       37.035931       13.751078
  O           56.131467       36.757472       13.647819
  C           57.257488       36.329699       13.862957
  C           56.461898       34.175080       14.423051
  C           58.272977       38.400134       13.342706
  H           55.789281       34.551868       15.199574
  H           56.849425       33.202132       14.736417
  H           55.928735       34.052230       13.475417
  H           59.269386       38.847344       13.292844
  H           57.675954       38.953275       14.074136
  H           57.814802       38.452019       12.350504
  O           24.558308       45.415914       56.174560
  O           26.549241       44.512776       55.890331
  O           24.833739       43.179367       56.659819
  C           25.268839       44.258200       56.280341
  C           23.179311       45.330983       56.548779
  C           27.443753       43.396525       55.939981
  H           22.655207       44.618975       55.904010
  H           22.730106       46.319008       56.418291
  H           23.089388       45.040214       57.599842
  H           28.428069       43.734406       55.604912
  H           27.097646       42.603772       55.269799
  H           27.530213       43.025813       56.965738
  O           21.509238        8.409585       43.302044
  O           19.818870        6.994631       43.273340
  O           21.346670        6.921741       41.548940
  C           20.934273        7.393242       42.600041
  C           22.703770        8.955392       42.732771
  C           19.083120        5.924659       42.671290
  H           23.478158        8.185074       42.667184
  H           23.058619        9.754653       43.388720
  H           22.493866        9.378246       41.745603
  H           18.220826        5.705265       43.306607
  H           19.706383        5.027838       42.603137
  H           18.723492        6.222138       41.681717
  O           28.044547       28.166887       49.799454
  O           30.188267       27.782262       49.457708
  O           28.654211       26.257222       48.661487
  C           28.933521       27.295391       49.245770
  C           26.664943       27.808060       49.669766
  C           31.256641       26.984219       48.937770
  H           26.385511       27.754015       48.613184
  H           26.064949       28.584181       50.152102
  H           26.473163       26.854009       50.170138
  H           32.200142       27.483446       49.174185
  H           31.168867       26.895786       47.850634
  H           31.254787       25.996230       49.407829
  O            9.672878       48.464280       15.096263
  O            8.487513       48.096130       16.918250
  O            7.413068       48.916747       15.051382
  C            8.420690       48.531731       15.629012
  C            9.788725       48.889499       13.734406
  C            7.249757       48.100946       17.636976
  H            9.172803       48.258022       13.086913
  H           10.834563       48.785812       13.433612
  H            9.498482       49.940296       13.639806
  H            7.442238       47.732255       18.648080
  H            6.527858       47.436556       17.152376
  H            6.854570       49.119005       17.703797
  O           56.304362       35.229923        2.121318
  O           54.696767       33.741744        2.368750
  O           54.509320       35.759631        3.466946
  C           55.108340       34.989857        2.728149
  C           56.889040       36.508122        2.391954
  C           53.445683       33.320546        2.921934
  H           56.229742       37.307932        2.041241
  H           57.835920       36.570677        1.849266
  H           57.089989       36.613611        3.462400
  H           53.235200       32.311519        2.557414
  H           52.642660       33.987307        2.593343
  H           53.504220       33.294177        4.014161
  O           31.591612       17.393087        5.751226
  O           30.360166       17.081756        3.949317
  O           31.287066       19.162000        4.304962
  C           31.099249       17.998657        4.634441
  C           32.398859       18.218880        6.596982
  C           29.761188       17.552030        2.737418
  H           33.281989       18.568381        6.053567
  H           32.726403       17.616272        7.448206
  H           31.813892       19.065086        6.969960
  H           29.202001       16.725198        2.291355
  H           30.534223       17.873697        2.032905
  H           29.067197       18.370534        2.950745
  O           13.298162       41.175874       27.969910
  O           14.355939       39.366076       28.652553
  O           14.872107       40.227886       26.577970
  C           14.240641       40.254134       27.625710
  C           13.045359       42.194314       26.996383
  C           15.311044       38.317853       28.458557
  H           13.953831       42.775764       26.812088
  H           12.276360       42.861653       27.394258
  H           12.676745       41.747577       26.067990
  H           15.303517       37.682093       29.347975
  H           16.314086       38.737500       28.335293
  H           15.036155       37.710850       27.590764
  O           41.116419        4.154458       22.285237
  O           42.088808        4.932855       20.466221
  O           40.547735        6.262944       21.547423
  C           41.185533        5.223865       21.443847
  C           40.205531        4.288378       23.381245
  C           42.288323        5.955650       19.485040
  H           40.499612        5.128710       24.017427
  H           40.247115        3.369619       23.972140
  H           39.184561        4.422011       23.010939
  H           43.030001        5.597208       18.766189
  H           42.669339        6.865573       19.958595
  H           41.353619        6.158193       18.953639
  O           43.735153       23.244087       39.194772
  O           42.704552       25.139521       39.648037
  O           44.894334       25.219222       38.932814
  C           43.882159       24.598207       39.227838
  C           44.887499       22.507564       38.772259
  C           42.680023       26.567453       39.743121
  H           45.161064       22.786187       37.750055
  H           44.636683       21.443724       38.790740
  H           45.721881       22.683756       39.457917
  H           41.687128       26.868260       40.088069
  H           42.861448       27.015536       38.761440
  H           43.422993       26.911513       40.468862
  O           37.161339       56.583110       25.199490
  O           35.243243       55.548479       24.866757
  O           37.158426       54.281760       25.068104
  C           36.580505       55.360079       25.047263
  C           38.578519       56.573438       25.400464
  C           34.470092       54.357331       24.687775
  H           38.827411       56.027598       26.315605
  H           38.913902       57.608408       25.507046
  H           39.080565       56.128718       24.535861
  H           33.424423       54.647467       24.554690
  H           34.547498       53.718992       25.573168
  H           34.802157       53.821039       23.793792
  O           54.605141       45.858495       41.887882
  O           56.525737       44.776472       41.859650
  O           56.559438       47.080629       41.912213
  C           55.958605       46.014950       41.889275
  C           53.843046       47.069815       41.916144
  C           57.956830       44.752197       41.855673
  H           54.060534       47.632732       42.828938
  H           52.782572       46.804524       41.911829
  H           54.057872       47.673140       41.028894
  H           58.279125       43.707770       41.830928
  H           58.346027       45.218377       42.765943
  H           58.341748       45.259579       40.966019
  O           32.878963       45.778629       27.908696
  O           32.933726       43.574794       27.928079
  O           34.203124       44.695163       26.363969
  C           33.419546       44.684057       27.303692
  C           33.283567       47.043216       27.373908
  C           33.400865       42.322756       27.415426
  H           34.365511       47.169550       27.477865
  H           32.782118       47.829646       27.944067
  H           32.983466       47.124165       26.324741
  H           32.938703       41.522434       27.999553
  H           34.487705       42.252058       27.521115
  H           33.105628       42.208474       26.368117
  O           13.482303       33.049056       44.147697
  O           11.954732       34.313741       45.110692
  O           11.264583       32.460733       43.926169
  C           12.143425       33.198346       44.351327
  C           13.865115       31.916492       43.360526
  C           10.593163       34.625359       45.423195
  H           13.549881       30.990532       43.851029
  H           14.954910       31.914688       43.274804
  H           13.433935       31.989334       42.357459
  H           10.583181       35.534236       46.030777
  H           10.141358       33.812466       45.999794
  H           10.026738       34.810240       44.505555
  O           21.398294       47.146456       44.339641
  O           21.669177       48.949162       45.579454
  O           21.113595       49.212550       43.357969
  C           21.367243       48.508512       44.326055
  C           21.102979       46.509165       43.092431
  C           21.683191       50.370436       45.748023
  H           20.089833       46.764535       42.767328
  H           21.161694       45.427722       43.240880
  H           21.837352       46.800219       42.335233
  H           21.937058       50.586875       46.789186
  H           20.694264       50.786975       45.533765
  H           22.441485       50.821128       45.100761
  O           55.974165       21.374385       31.354952
  O           54.087376       22.216231       30.585808
  O           54.620923       20.038216       30.052313
  C           54.868537       21.100138       30.607477
  C           56.913956       20.302516       31.484465
  C           52.872586       22.105693       29.837011
  H           56.445458       19.445843       31.978420
  H           57.745421       20.652080       32.102102
  H           57.301765       20.018093       30.501575
  H           52.345640       23.061501       29.900831
  H           52.235402       21.324285       30.262201
  H           53.093221       21.895902       28.786111
  O           51.405126       13.414965       23.144731
  O           52.795388       11.740331       22.793968
  O           50.703875       11.276799       23.644705
  C           51.547753       12.063066       23.236230
  C           50.141553       13.933410       23.573081
  C           53.119398       10.346460       22.821772
  H           49.335500       13.522871       22.957366
  H           50.159762       15.019323       23.448721
  H           49.976622       13.703568       24.630122
  H           54.138692       10.226720       22.444923
  H           52.437639        9.786202       22.174697
  H           53.077659        9.968322       23.847613
  O           51.762745       18.327239       46.389179
  O           51.205324       16.458088       47.416709
  O           49.674036       18.179757       47.353038
  C           50.767945       17.703942       47.080714
  C           51.472097       19.659749       45.954640
  C           50.278139       15.656157       48.155537
  H           50.614895       19.657676       45.274515
  H           52.344997       20.040334       45.417793
  H           51.280616       20.305888       46.816734
  H           50.749825       14.690961       48.358569
  H           49.371102       15.486975       47.567277
  H           50.037330       16.136638       49.108549
  O           27.838060       19.849837       32.473735
  O           29.246390       18.159268       32.336452
  O           26.984834       17.714363       32.314860
  C           27.926135       18.494240       32.369103
  C           26.509696       20.380826       32.522549
  C           29.526241       16.759746       32.228499
  H           25.969133       20.133563       31.603842
  H           26.581125       21.468481       32.605675
  H           25.979853       19.995543       33.399013
  H           30.611737       16.630256       32.212886
  H           29.111588       16.361339       31.297519
  H           29.121234       16.224771       33.092706
  O           15.563507       42.067191       36.213163
  O           13.420027       42.390823       35.811897
  O           14.820839       41.955833       34.033823
  C           14.621928       42.120647       35.229845
  C           16.898340       41.791231       35.776181
  C           12.307153       42.484429       34.916698
  H           16.942752       40.811835       35.290197
  H           17.547729       41.776382       36.655430
  H           17.244396       42.576350       35.097066
  H           11.413248       42.702704       35.507124
  H           12.159930       41.533967       34.394839
  H           12.463291       43.298133       34.202143
  O           13.877831       32.312783       48.954386
  O           12.680868       30.471734       48.759243
  O           11.603050       32.505455       48.635435
  C           12.616312       31.832647       48.768949
  C           13.996957       33.738711       48.992091
  C           11.433145       29.795313       48.574107
  H           13.667711       34.171377       48.042477
  H           15.050311       33.988001       49.144745
  H           13.415407       34.145393       49.825022
  H           11.624762       28.719001       48.586370
  H           10.996886       30.063382       47.607047
  H           10.745657       30.038847       49.389663
  O           26.543928       22.059214       52.609699
  O           26.183990       19.985678       53.266321
  O           27.952355       20.401269       51.847445
  C           26.992473       20.776805       52.506836
  C           27.283619       23.034009       51.867058
  C           26.512657       18.592638       53.273498
  H           28.320107       23.069338       52.216076
  H           26.823180       24.011052       52.035546
  H           27.242890       22.806177       50.797573
  H           25.792927       18.076762       53.914726
  H           27.516965       18.442585       53.681220
  H           26.440024       18.181162       52.262314
  O           46.452174       28.384185        9.195074
  O           46.657521       28.955731       11.314373
  O           48.476077       28.032091       10.240697
  C           47.314923       28.417898       10.249054
  C           46.981353       27.842398        7.980446
  C           47.421192       29.066610       12.519838
  H           47.826286       28.445019        7.633594
  H           46.193891       27.873367        7.222852
  H           47.283951       26.801560        8.130298
  H           46.781453       29.509030       13.288156
  H           48.284483       29.720330       12.362460
  H           47.741916       28.076527       12.857406
  O           53.538356       55.325723       45.655575
  O           52.758754       55.385001       47.716878
  O           54.625941       56.637172       47.208232
  C           53.732809       55.862644       46.892608
  C           54.481258       55.722705       44.654463
  C           52.811405       55.849675       49.069630
  H           54.437843       56.805344       44.501562
  H           54.213342       55.225188       43.718674
  H           55.490761       55.412422       44.940804
  H           51.982167       55.394697       49.617966
  H           52.698291       56.937613       49.101018
  H           53.751715       55.544657       49.538527
  O            1.852957       36.486151       47.230234
  O            3.477892       36.649870       45.749341
  O            3.267108       34.688756       46.942085
  C            2.903224       35.824514       46.668519
  C            1.128123       35.760413       48.228634
  C            4.608621       36.111089       45.056665
  H            0.691770       34.854817       47.796358
  H            0.319889       36.399451       48.593864
  H            1.785203       35.511131       49.067364
  H            4.970363       36.868133       44.355709
  H            4.317544       35.220130       44.491991
  H            5.409559       35.876367       45.764114
  O            7.936888       27.977822       33.141413
  O            9.126552       26.811227       34.585025
  O            8.330697       28.877012       35.227043
  C            8.451928       27.980850       34.402789
  C            7.190592       29.143291       32.775886
  C            9.738769       26.644524       35.868003
  H            6.323907       29.259607       33.433684
  H            6.837184       29.012751       31.749696
  H            7.829683       30.030546       32.817168
  H           10.242006       25.674012       35.881104
  H            8.978445       26.656542       36.654865
  H           10.483176       27.428318       36.037138
  O           38.420852       12.294249        9.413069
  O           37.054194       11.963333       11.111009
  O           39.302668       12.231176       11.541895
  C           38.356638       12.169594       10.768312
  C           39.728142       12.516876        8.874263
  C           36.800857       11.808076       12.511134
  H           40.143762       13.451476        9.263046
  H           39.638861       12.597772        7.787760
  H           40.383968       11.673556        9.111051
  H           35.727525       11.650609       12.647067
  H           37.094292       12.713090       13.051720
  H           37.335523       10.935534       12.898283
  O           52.936984       55.620252       18.871655
  O           54.419966       57.184679       19.333816
  O           54.601695       56.049362       17.336049
  C           54.043475       56.262964       18.403739
  C           52.401413       54.607560       18.013457
  C           55.577857       57.958455       19.003373
  H           52.090825       55.044924       17.059718
  H           51.524863       54.175427       18.503280
  H           53.140476       53.816513       17.854099
  H           55.769059       58.652651       19.826081
  H           55.399853       58.535685       18.090954
  H           56.448189       57.306083       18.885000
  O           32.214918       55.081166       10.829498
  O           32.866504       57.168180       11.112462
  O           33.076855       55.699082       12.876136
  C           32.753059       55.956210       11.724511
  C           32.022588       53.746419       11.309438
  C           33.418241       58.216658       11.915527
  H           32.982373       53.304213       11.593405
  H           31.588753       53.153282       10.500129
  H           31.329907       53.744731       12.156525
  H           33.453427       59.126205       11.309888
  H           34.436280       57.961040       12.224792
  H           32.783349       58.399850       12.787556
  O           13.873362       24.438325       19.844968
  O           15.869294       23.637731       19.359620
  O           14.132090       22.154593       19.668592
  C           14.578804       23.293020       19.628236
  C           12.485029       24.261475       20.145199
  C           16.760177       22.546657       19.105616
  H           11.976402       23.771312       19.309490
  H           12.041151       25.249095       20.295478
  H           12.367522       23.679902       21.064617
  H           17.753418       22.957941       18.906541
  H           16.429995       21.984917       18.226516
  H           16.819500       21.894260       19.981938
  O            7.356495       40.696840       51.131964
  O            7.409931       39.264687       49.456750
  O            6.205755       38.710649       51.342497
  C            6.917197       39.478494       50.708886
  C            6.930309       41.086748       52.441629
  C            7.044765       38.019176       48.853436
  H            5.838704       41.151798       52.480825
  H            7.348509       42.073858       52.655467
  H            7.302868       40.378235       53.187668
  H            7.501577       37.975164       47.861116
  H            5.957937       37.956186       48.742861
  H            7.422034       37.183898       49.450981
  O           24.526614       34.221154       52.253847
  O           22.776419       34.449925       53.574733
  O           24.728651       33.610194       54.467303
  C           24.077723       34.048886       53.528667
  C           25.888303       33.845636       52.022167
  C           22.139506       34.335648       54.851414
  H           26.558316       34.450401       52.640804
  H           26.118225       34.032474       50.969916
  H           26.027585       32.780064       52.228373
  H           21.109215       34.687143       54.750095
  H           22.653045       34.960866       55.588143
  H           22.123719       33.290471       55.174580
  O            4.636135       29.945680        2.797317
  O            4.426874       31.978943        1.971294
  O            3.440162       30.225445        0.846712
  C            4.099551       30.670829        1.776248
  C            4.388955       28.536553        2.751009
  C            3.940732       32.891660        0.981725
  H            3.313810       28.338960        2.799897
  H            4.869739       28.078288        3.619251
  H            4.820693       28.106026        1.842377
  H            4.270986       33.897356        1.255258
  H            2.846878       32.875849        0.956763
  H            4.353903       32.641304        0.000047
  O           21.451380       55.201686       26.346725
  O           21.599254       56.779453       24.814065
  O           23.313233       56.560705       26.339669
  C           22.232707       56.215881       25.880588
  C           21.968372       54.493191       27.477935
  C           22.285109       57.872659       24.195086
  H           22.922230       54.020407       27.224951
  H           21.251074       53.713658       27.747779
  H           22.086209       55.171765       28.328239
  H           21.674145       58.229146       23.361447
  H           23.252187       57.540934       23.805075
  H           22.416004       58.690912       24.909516
  O           20.962732       25.168362        3.935043
  O           22.127327       26.266248        2.418921
  O           23.099813       25.849309        4.466718
  C           22.160149       25.769243        3.687091
  C           20.820785       24.586589        5.235149
  C           23.315267       26.938185        1.987721
  H           21.566548       23.799245        5.381081
  H           19.824109       24.142547        5.301990
  H           20.914805       25.356611        6.006894
  H           23.156980       27.284695        0.962934
  H           24.165149       26.248996        1.998106
  H           23.512414       27.805373        2.625059
  O           22.480731       51.885846       39.068573
  O           21.897847       52.557404       41.085878
  O           20.256241       51.784588       39.664285
  C           21.424677       52.048454       39.913945
  C           22.162800       51.356023       37.777414
  C           20.914303       52.794453       42.098341
  H           21.724056       50.358362       37.875118
  H           23.090461       51.276777       37.204554
  H           21.480303       52.028994       37.249520
  H           21.422373       53.198840       42.977914
  H           20.423447       51.856832       42.376399
  H           20.180280       53.526845       41.749209
  O           32.165650       31.172124       48.596544
  O           33.881848       30.943615       49.961354
  O           34.234953       31.910059       47.898748
  C           33.502782       31.395248       48.733069
  C           31.593530       31.588724       47.352354
  C           35.269508       31.099274       50.275683
  H           31.713462       32.668687       47.223252
  H           30.526005       31.354321       47.373566
  H           32.055965       31.045972       46.522331
  H           35.437596       30.700213       51.279580
  H           35.542876       32.158806       50.268600
  H           35.883899       30.536327       49.566672
  O           57.118327       28.235278       50.403661
  O           56.690288       26.109100       50.798590
  O           54.919331       27.569287       50.587828
  C           56.694480       29.583266       50.174411
  C           55.777819       25.028891       51.020362
  C           57.915004       30.457783       49.981751
  C           56.565472       23.752713       51.227181
  C           56.119130       27.329245       50.595588
  H           56.066682       29.621054       49.277258
  H           56.118401       29.936565       51.036949
  H           55.172856       25.238675       51.909557
  H           55.120689       24.921448       50.150188
  H           57.626929       31.497662       49.803804
  H           58.562145       30.416250       50.864076
  H           58.511247       30.105865       49.133425
  H           55.897343       22.904313       51.399870
  H           57.189549       23.539083       50.353067
  H           57.240758       23.851012       52.083431
  O           29.838110       49.014493       55.098598
  O           30.711564       48.026322       56.865068
  O           31.189274       47.174925       54.777062
  C           29.646585       49.125337       53.684277
  C           31.517449       47.008789       57.468233
  C           28.742016       50.305460       53.400300
  C           31.496351       47.189422       58.971139
  C           30.636760       47.988369       55.505234
  H           30.615479       49.275502       53.195262
  H           29.186013       48.206248       53.305057
  H           31.115830       46.023004       57.208250
  H           32.546055       47.091385       57.099838
  H           28.573941       50.419758       52.325737
  H           27.774902       50.178363       53.897844
  H           29.180831       51.229931       53.789919
  H           32.104023       46.426251       59.465412
  H           31.878432       48.178228       59.245841
  H           30.471869       47.127377       59.352485
  O           21.442604       27.639927       47.211005
  O           21.391180       25.590625       46.400118
  O           23.152924       26.194754       47.758110
  C           22.056849       28.668835       47.994154
  C           21.946513       24.279219       46.257110
  C           21.204926       29.918084       47.922161
  C           21.042486       23.455575       45.364840
  C           22.103453       26.448878       47.182584
  H           22.138557       28.335979       49.034813
  H           23.057192       28.879762       47.599842
  H           22.943380       24.351823       45.808062
  H           22.024788       23.806345       47.242418
  H           21.646277       30.726950       48.511181
  H           21.098921       30.253142       46.885092
  H           20.195450       29.718246       48.296371
  H           21.438040       22.444460       45.233755
  H           20.036310       23.389010       45.791880
  H           20.939818       23.925393       44.381190
  O           25.765264       42.660564       23.059906
  O           24.753956       44.014119       21.643939
  O           23.670454       42.084867       22.289592
  C           25.808055       41.465557       23.846925
  C           23.641972       44.365042       20.813891
  C           27.123493       41.414345       24.594307
  C           23.934529       45.683044       20.128994
  C           24.630903       42.842031       22.327498
  H           24.976714       41.468390       24.560582
  H           25.721160       40.592636       23.190330
  H           23.486821       43.583488       20.061721
  H           22.741471       44.460286       21.430813
  H           27.190007       40.511294       25.207556
  H           27.965392       41.429122       23.894305
  H           27.233173       42.290474       25.241900
  H           23.102935       45.982179       19.484812
  H           24.109947       46.471171       20.868771
  H           24.842899       45.608837       19.522203
  O           14.886122       46.105892       56.232611
  O           13.606486       44.310820       56.240923
  O           14.699368       44.894354       58.184620
  C           15.769995       47.024825       56.883458
  C           13.028932       43.179764       56.901058
  C           16.188281       48.091312       55.893902
  C           12.152816       42.430512       55.919813
  C           14.425318       45.084329       57.007333
  H           15.254501       47.488668       57.731725
  H           16.654148       46.487554       57.244391
  H           13.826710       42.521330       57.262545
  H           12.426041       43.520963       57.749982
  H           16.866124       48.812404       56.359256
  H           16.689509       47.641009       55.030761
  H           15.312903       48.625539       55.510073
  H           11.694126       41.557484       56.392491
  H           11.360600       43.081561       55.535476
  H           12.738135       42.098334       55.056158
  O           48.167590       41.388817        2.986845
  O           46.728212       43.051266        3.142651
  O           45.914598       40.904727        2.934663
  C           48.473319       39.996707        2.853314
  C           45.390294       43.557857        3.187068
  C           49.976855       39.821265        2.839962
  C           45.437944       45.064084        3.331324
  C           46.841408       41.699708        3.013565
  H           48.043862       39.445942        3.697510
  H           48.048103       39.617652        1.917276
  H           44.867927       43.291019        2.261547
  H           44.862435       43.120602        4.041902
  H           50.246642       38.766285        2.738813
  H           50.422953       40.381253        2.011455
  H           50.418714       40.212428        3.762330
  H           44.429498       45.485561        3.368650
  H           45.973428       45.347094        4.243656
  H           45.978711       45.514712        2.492668
  O           42.130377       52.600760       55.032327
  O           42.563418       51.199141       56.677854
  O           40.767660       50.761202       55.300785
  C           41.350937       53.018167       53.906486
  C           42.278690       50.015981       57.431310
  C           41.930520       54.303220       53.354852
  C           43.296383       49.883323       58.544191
  C           41.722374       51.449381       55.635639
  H           41.376568       52.239752       53.135866
  H           40.314700       53.184663       54.221367
  H           41.271688       50.087874       57.857263
  H           42.333832       49.141763       56.773079
  H           41.357436       54.651617       52.491027
  H           41.928361       55.086677       54.119838
  H           42.972718       54.157289       53.052301
  H           43.108007       48.986950       59.141711
  H           44.310466       49.828509       58.134538
  H           43.265794       50.758915       59.200881
  O           41.404738       31.433520       24.838505
  O           39.844036       31.965274       23.375198
  O           41.829237       31.087731       22.599472
  C           42.701918       30.924630       25.166571
  C           39.358724       32.063728       22.032287
  C           42.881944       30.965412       26.669071
  C           37.960006       32.642423       22.054695
  C           41.100892       31.457184       23.510634
  H           42.789635       29.891953       24.811147
  H           43.468719       31.541702       24.685015
  H           40.020177       32.716695       21.451965
  H           39.339878       31.067350       21.576827
  H           43.865435       30.582530       26.955683
  H           42.778955       31.989786       27.041986
  H           42.111022       30.367265       27.165969
  H           37.557359       32.731722       21.041827
  H           37.290571       32.009591       22.646781
  H           37.959638       33.631726       22.523860
  O           26.283879       13.747865       13.307693
  O           27.381931       15.645227       13.540326
  O           28.495995       13.669546       13.950694
  C           26.216551       12.318636       13.352904
  C           28.568433       16.382947       13.851156
  C           24.819895       11.878534       12.969184
  C           28.282398       17.862120       13.702724
  C           27.490817       14.290269       13.632075
  H           26.943772       11.896437       12.650523
  H           26.447665       11.974126       14.367083
  H           28.873658       16.166510       14.881036
  H           29.370744       16.090318       13.164692
  H           24.732761       10.788662       12.993364
  H           24.079250       12.307639       13.652066
  H           24.567230       12.231296       11.963834
  H           29.170390       18.457321       13.933385
  H           27.958339       18.091453       12.682147
  H           27.469562       18.166419       14.370211
  O           25.413293       48.869767       35.803227
  O           24.445838       47.793680       34.140130
  O           26.197612       46.776733       35.240114
  C           26.393178       48.961051       36.842826
  C           24.320728       46.656208       33.280399
  C           26.241297       50.291967       37.547930
  C           23.190183       46.898718       32.303231
  C           25.430988       47.716533       35.078061
  H           26.244208       48.144268       37.557749
  H           27.395766       48.885216       36.407251
  H           25.258010       46.507745       32.732568
  H           24.105725       45.765841       33.881721
  H           26.976752       50.395475       38.350669
  H           26.369750       51.119088       36.841965
  H           25.237159       50.390307       37.973424
  H           23.066328       46.046587       31.629040
  H           22.248916       47.067009       32.836973
  H           23.382209       47.796571       31.706721
  O           30.365784       33.266824        0.936134
  O           29.203101       35.139643        0.913011
  O           31.504296       35.270986        0.923362
  C           31.608772       32.556845        0.949696
  C           29.118091       36.568363        0.900165
  C           31.326867       31.069583        0.962357
  C           27.660020       36.975447        0.889437
  C           30.464763       34.625565        0.923817
  H           32.187268       32.816352        0.056141
  H           32.177483       32.833417        1.844533
  H           29.608317       36.971344        1.793442
  H           29.617237       36.955861        0.005031
  H           32.257437       30.495191        0.972964
  H           30.733266       30.797221        1.841260
  H           30.742858       30.780518        0.082365
  H           27.557945       38.064244        0.879409
  H           27.151649       36.564559        0.010850
  H           27.142900       36.579903        1.769761
  O           20.821789       10.159008       53.773086
  O           18.862157        9.150827       53.829955
  O           18.918668       11.454364       53.888083
  C           21.630015       11.340548       53.770518
  C           17.432526        9.180807       53.892324
  C           23.088135       10.940236       53.698325
  C           16.908482        7.760608       53.877651
  C           19.476766       10.366726       53.835484
  H           21.372115       11.957466       52.902566
  H           21.447476       11.909776       54.688841
  H           17.117719        9.681978       54.814486
  H           17.040712        9.728934       53.028261
  H           23.735905       11.821360       53.694556
  H           23.356842       10.307557       54.550692
  H           23.282641       10.354436       52.793883
  H           15.815953        7.746299       53.924283
  H           17.230452        7.240398       52.969410
  H           17.306075        7.194251       54.726178
  O           39.396543       42.060336       54.864851
  O           37.468540       40.995130       54.954068
  O           39.413111       39.757661       54.967086
  C           40.827654       42.072642       54.832542
  C           36.697714       39.791128       55.023641
  C           41.306745       43.506686       54.757919
  C           35.226539       40.147781       55.039260
  C           38.820447       40.827592       54.932530
  H           41.217464       41.598904       55.740321
  H           41.177803       41.519215       53.954037
  H           36.917723       39.165807       54.151157
  H           36.955858       39.244539       55.937517
  H           42.399052       43.553261       54.731554
  H           40.910206       43.999574       53.864144
  H           40.949146       44.077893       55.620969
  H           34.606560       39.248436       55.092225
  H           34.994359       40.788277       55.896606
  H           34.956819       40.710731       54.139717
  O            2.677409        4.931790       13.758413
  O            2.958380        6.986683       13.011225
  O            1.238679        6.577198       14.490349
  C            1.984802        3.966246       14.556719
  C            2.586817        8.367819       12.956105
  C            2.641277        2.614341       14.375143
  C            3.527579        9.094452       12.018677
  C            2.193387        6.203703       13.822343
  H            2.032204        4.262208       15.610570
  H            0.937125        3.914523       14.239931
  H            1.558109        8.454795       12.588879
  H            2.653340        8.804189       13.958963
  H            2.135712        1.850622       14.972752
  H            2.617813        2.312646       13.322791
  H            3.694827        2.654681       14.670802
  H            3.271672       10.155660       11.952742
  H            4.562908        9.001145       12.363020
  H            3.485689        8.657619       11.015551
  O           40.522270       49.386071       31.783180
  O           41.004618       50.510757       29.949538
  O           42.452935       48.856276       30.640862
  C           40.816028       48.376629       32.754780
  C           41.849052       50.785852       28.827092
  C           39.717687       48.360478       33.796396
  C           41.238533       51.907400       28.013951
  C           41.431591       49.516208       30.777037
  H           40.872431       47.400109       32.261152
  H           41.776524       48.598732       33.233085
  H           42.842101       51.083873       29.181630
  H           41.938485       49.886114       28.208189
  H           39.910805       47.598410       34.556632
  H           39.636881       49.336305       34.286547
  H           38.747733       48.157487       33.330572
  H           41.859896       52.144138       27.145698
  H           40.237157       51.631179       27.667347
  H           41.125955       52.809180       28.624653
  O            4.612442       16.739664       12.041339
  O            3.012693       18.060766       11.296146
  O            5.113768       18.950314       11.623321
  C            5.963881       16.507311       12.452308
  C            2.537037       19.336986       10.856091
  C            6.114698       15.055181       12.852497
  C            1.069608       19.221102       10.502504
  C            4.327359       18.013288       11.650525
  H            6.642137       16.734949       11.622494
  H            6.202351       17.152919       13.304940
  H            2.667522       20.071761       11.658424
  H            3.106066       19.654945        9.975367
  H            7.138343       14.842108       13.173045
  H            5.429478       14.807422       13.669873
  H            5.861959       14.396409       12.015149
  H            0.672494       20.181199       10.161161
  H            0.920959       18.476375        9.713536
  H            0.489640       18.886430       11.368801
  O           40.692298       34.096696       44.534842
  O           40.678083       33.334231       46.603238
  O           38.677378       33.477937       45.467728
  C           40.024329       34.452844       43.319832
  C           39.994092       32.819648       47.750406
  C           41.047057       34.958935       42.325108
  C           41.002542       32.554500       48.847915
  C           39.891018       33.621260       45.528842
  H           39.514955       33.572834       42.911712
  H           39.287473       35.237516       43.524754
  H           39.256284       33.552855       48.094941
  H           39.483655       31.887539       47.483584
  H           40.569628       35.240871       41.382466
  H           41.577765       35.828536       42.726552
  H           41.801478       34.191280       42.123702
  H           40.512590       32.159213       49.742172
  H           41.757894       31.836349       48.511928
  H           41.534192       33.474158       49.113277
  O           56.341698       35.229657       39.152164
  O           57.233765       35.287030       37.137034
  O           58.475133       36.069345       38.914630
  C           56.400108       35.470642       40.562053
  C           58.310761       35.593451       36.245509
  C           55.095297       35.031733       41.191660
  C           57.908211       35.212534       34.836730
  C           57.455290       35.578888       38.449258
  H           57.230107       34.901825       40.995631
  H           56.557484       36.539736       40.743519
  H           58.528344       36.666414       36.290955
  H           59.201779       35.028590       36.541459
  H           55.105423       35.202196       42.271863
  H           54.253350       35.579165       40.755247
  H           54.914927       33.968280       41.003129
  H           58.710538       35.433824       34.127293
  H           57.669856       34.145260       34.779298
  H           57.007631       35.756105       34.532879
  O            1.171384       32.797412       37.902520
  O            1.197288       33.735043       35.907526
  O            3.100082       32.664997       36.647278
  C            1.801831       32.060208       38.955296
  C            1.857115       34.068703       34.681993
  C            0.819829       31.890416       40.094779
  C            0.901219       34.847375       33.803509
  C            1.942037       33.028156       36.802985
  H            2.107399       31.077095       38.580385
  H            2.684604       32.606611       39.305746
  H            2.741630       34.678397       34.897785
  H            2.164541       33.149616       34.170782
  H            1.270014       31.329780       40.918806
  H            0.490931       32.865599       40.468756
  H           -0.076737       31.361342       39.755280
  H            1.374293       35.119382       32.855768
  H            0.002942       34.257222       33.593741
  H            0.570591       35.760798       34.308664
  O           35.387106       11.781461       28.942566
  O           34.893334       11.186661       31.007081
  O           36.590770       10.073259       29.915337
  C           36.156942       11.645626       27.743327
  C           35.099113       10.371698       32.165581
  C           35.672722       12.659817       26.729164
  C           34.115358       10.784306       33.239724
  C           35.714188       10.926198       29.951362
  H           37.215018       11.821699       27.966741
  H           36.033077       10.633320       27.342636
  H           34.941915        9.319248       31.904242
  H           36.123524       10.507071       32.530029
  H           36.240982       12.583666       25.797885
  H           34.610931       12.507926       26.508838
  H           35.773369       13.676669       27.122728
  H           34.245105       10.180045       34.141962
  H           34.248196       11.839910       33.499028
  H           33.086116       10.671600       32.883639
  O           42.309869       19.055369       44.595035
  O           44.372862       18.901709       43.833280
  O           44.051027       19.560145       46.018626
  C           41.370695       19.339661       45.637340
  C           45.789606       19.010456       44.005448
  C           39.968365       19.123527       45.109764
  C           46.474003       18.638863       42.707250
  C           43.622061       19.208336       44.928023
  H           41.553918       18.671539       46.486153
  H           41.488192       20.379920       45.960939
  H           46.046350       20.040341       44.277623
  H           46.113795       18.331864       44.802305
  H           39.223239       19.332464       45.882507
  H           39.776194       19.772176       44.248753
  H           39.840921       18.091973       44.765290
  H           47.560978       18.711215       42.803433
  H           46.212370       17.617210       42.412362
  H           46.146146       19.297525       41.896378
  O            7.638424       35.677712       21.218350
  O            8.434559       37.347468       20.019224
  O            6.149136       37.083301       20.160341
  C            6.548370       34.915891       21.748145
  C            8.253913       38.492496       19.179634
  C            7.100386       33.782529       22.586206
  C            9.611332       39.048100       18.804776
  C            7.289915       36.738480       20.437685
  H            5.918592       35.562673       22.369027
  H            5.951791       34.509964       20.923539
  H            7.711078       38.199272       18.274091
  H            7.678436       39.253373       19.718577
  H            6.292237       33.178195       23.007722
  H            7.747164       33.136752       21.983159
  H            7.714528       34.172167       23.404755
  H            9.510305       39.926699       18.161458
  H           10.173678       39.329183       19.701405
  H           10.205736       38.292557       18.280680
  O           18.993303       38.867762       48.983282
  O           17.183347       39.073597       50.224858
  O           16.987875       38.101679       48.143987
  C           19.656249       38.458331       47.782390
  C           15.779389       38.899328       50.442034
  C           21.128198       38.794103       47.892855
  C           15.420582       39.443350       51.808452
  C           17.653105       38.626687       49.026616
  H           19.532126       37.378208       47.646864
  H           19.219639       38.985127       46.926518
  H           15.220614       39.440020       49.669971
  H           15.531568       37.833226       50.391259
  H           21.666695       38.493938       46.989571
  H           21.267841       39.869182       48.046868
  H           21.575094       38.288769       48.755369
  H           14.351737       39.325934       52.007908
  H           15.985228       38.924534       52.590239
  H           15.679288       40.504797       51.880838
  O           29.292905       48.518850       42.823096
  O           30.483710       48.499215       44.678202
  O           30.578164       50.364578       43.327515
  C           28.845743       49.154482       41.620893
  C           31.396407       49.112226       45.594627
  C           27.894825       48.225705       40.896526
  C           31.649980       48.163496       46.746760
  C           30.160957       49.243121       43.583387
  H           28.331465       50.088922       41.871454
  H           29.708030       49.373743       40.981328
  H           32.339069       49.330156       45.080279
  H           30.963511       50.045411       45.971899
  H           27.532724       48.681153       39.970540
  H           28.389603       47.279192       40.655026
  H           27.035795       47.982589       41.530539
  H           32.345317       48.601464       47.468349
  H           30.713415       47.921702       47.260149
  H           32.066358       47.218320       46.383291
  O           19.306386       37.535689       29.615979
  O           17.709659       38.631817       30.668969
  O           19.084534       37.243369       31.891582
  C           20.411819       36.626221       29.603435
  C           16.991525       38.974246       31.858783
  C           20.927532       36.496665       28.186102
  C           15.892084       39.953489       31.506485
  C           18.736263       37.751528       30.834379
  H           21.206813       37.008821       30.253084
  H           20.083034       35.646851       29.968665
  H           16.554962       38.068865       32.295083
  H           17.677465       39.431689       32.580447
  H           21.775023       35.807019       28.139773
  H           20.138209       36.132006       27.520513
  H           21.243395       37.471547       27.800296
  H           15.321572       40.237419       32.395247
  H           16.311877       40.857143       31.052204
  H           15.207851       39.516806       30.771658
  O           46.524299       55.280560       33.340060
  O           48.101261       53.766739       33.054831
  O           46.457927       53.364978       34.620365
  C           45.336386       55.755271       33.982544
  C           48.714374       52.512747       33.371424
  C           44.971433       57.107120       33.407310
  C           49.944596       52.333390       32.507604
  C           46.974460       54.065223       33.760105
  H           44.519228       55.046334       33.809044
  H           45.515755       55.847496       35.059567
  H           49.000188       52.502795       34.429191
  H           48.004906       51.700340       33.178505
  H           44.065624       57.500489       33.877171
  H           45.786687       57.822616       33.557115
  H           44.806651       57.034601       32.327218
  H           50.439257       51.382353       32.724023
  H           49.677175       52.359296       31.446001
  H           50.656067       53.148409       32.676104
  O           45.749034       11.964568       42.570651
  O           47.130697       10.335549       43.115742
  O           46.109904       10.270175       41.050176
  C           44.848360       12.598190       41.656002
  C           47.807954        9.108878       42.823793
  C           44.316215       13.866943       42.287401
  C           48.673407        8.729887       44.006653
  C           46.309538       10.802177       42.133835
  H           45.379894       12.840734       40.729134
  H           44.017715       11.919473       41.432327
  H           47.070570        8.320208       42.636917
  H           48.433861        9.240095       41.934080
  H           43.622735       14.378015       41.613686
  H           43.797317       13.642555       43.225169
  H           45.137079       14.548550       42.533581
  H           49.207062        7.794328       43.817069
  H           49.404471        9.517507       44.217331
  H           48.063706        8.612695       44.908523
  O           23.967165       46.165531       45.789754
  O           23.316978       46.978243       47.733096
  O           25.003205       48.060955       46.594136
  C           24.797240       46.202336       44.624038
  C           23.404378       47.943028       48.786748
  C           24.437829       45.037911       43.725976
  C           22.387220       47.600604       49.854426
  C           24.180301       47.161048       46.695097
  H           24.635350       47.145300       44.090137
  H           25.849046       46.128852       44.922308
  H           24.412292       47.924396       49.216190
  H           23.198132       48.941582       48.385597
  H           25.054850       45.035376       42.823048
  H           24.577389       44.087844       44.252199
  H           23.383698       45.087571       43.433827
  H           22.426687       48.319824       50.677327
  H           21.375319       47.597460       49.435819
  H           22.569482       46.597144       50.252780
  O           30.626570       28.170335       40.358273
  O           31.948128       26.406085       40.385193
  O           30.862245       26.999600       42.329789
  C           29.729358       29.081089       41.002332
  C           32.560217       25.302046       41.059788
  C           29.276279       30.119549       39.998390
  C           33.443944       24.555942       40.082978
  C           31.118963       27.173910       41.146189
  H           28.861671       28.530989       41.383055
  H           30.243631       29.571972       41.836128
  H           33.163695       25.673846       41.895394
  H           31.782792       24.631409       41.442440
  H           28.587538       30.833792       40.458271
  H           30.135056       30.666127       39.594944
  H           28.775937       29.642245       39.149361
  H           33.928810       23.703323       40.566656
  H           32.857558       24.193341       39.232179
  H           34.215717       25.218504       39.677743
  O           27.954255       39.613868       17.869066
  O           28.974519       39.015409       16.008762
  O           28.004526       41.103830       16.111076
  C           27.216151       40.557713       18.652413
  C           29.401633       39.275606       14.667680
  C           26.932455       39.955247       20.011872
  C           30.149979       38.067695       14.145443
  C           28.282708       40.022483       16.611577
  H           27.804489       41.474572       18.769325
  H           26.272508       40.792647       18.147435
  H           28.526858       39.470139       14.037137
  H           30.059649       40.151664       14.657467
  H           26.368099       40.651744       20.638286
  H           26.359864       39.027417       19.910444
  H           27.866612       39.698086       20.521998
  H           30.491818       38.232664       13.119806
  H           31.017853       37.849508       14.776611
  H           29.510365       37.179273       14.166408
  O           37.931306       51.405231       13.637270
  O           39.932181       52.245335       13.249272
  O           38.891154       51.057237       11.570719
  C           36.775357       50.666258       13.228644
  C           41.061293       52.465866       12.397740
  C           35.784095       50.629568       14.372160
  C           42.093961       53.278998       13.148882
  C           38.915544       51.521697       12.702478
  H           36.319568       51.152711       12.359126
  H           37.070286       49.645312       12.961542
  H           41.491277       51.501627       12.104455
  H           40.742191       53.009675       11.501630
  H           34.886111       50.070981       14.093582
  H           36.231574       50.161874       15.255358
  H           35.493316       51.644436       14.662849
  H           42.972900       53.466619       12.525774
  H           41.672986       54.239300       13.464769
  H           42.409792       52.756128       14.057560
  O            8.419980       37.227102       54.459025
  O            9.785591       38.149871       52.994981
  O            9.895917       35.870757       53.321055
  C            7.907697       36.088265       55.158946
  C           10.832790       38.065054       52.022966
  C            6.816101       36.541061       56.104976
  C           11.122500       39.451341       51.488104
  C            9.416309       36.969417       53.566247
  H            7.499285       35.370484       54.438925
  H            8.716358       35.614394       55.726548
  H           11.733624       37.653474       52.491750
  H           10.517705       37.410227       51.202910
  H            6.401201       35.693528       56.657737
  H            7.205102       37.273276       56.820206
  H            6.008163       37.033409       55.553761
  H           11.920286       39.423378       50.740605
  H           10.225665       39.883645       51.032050
  H           11.421613       40.122842       52.299558
  O           17.521097        4.008772       30.288747
  O           17.160729        5.099500       28.407187
  O           19.337947        4.704581       29.052646
  C           18.399253        3.437224       31.264168
  C           17.627124        5.773578       27.233846
  C           17.571379        2.809798       32.365322
  C           16.434631        6.249439       26.431776
  C           18.130860        4.613391       29.231037
  H           19.024146        2.672637       30.789450
  H           19.039270        4.221608       31.683427
  H           18.242810        6.631584       27.526104
  H           18.227490        5.083511       26.630576
  H           18.212468        2.362257       33.129988
  H           16.927476        3.558819       32.837941
  H           16.912603        2.035441       31.958634
  H           16.755590        6.770473       25.525405
  H           15.799301        5.404047       26.147430
  H           15.814435        6.926633       27.028103
  O           45.755858        6.828575       57.001662
  O           44.608876        8.257545       55.775980
  O           43.566446        7.264251       57.575858
  C           45.866565        5.918117       58.100790
  C           43.409868        8.979041       55.475220
  C           47.263903        5.336177       58.120047
  C           43.647089        9.842549       54.254614
  C           44.543275        7.432962       56.858544
  H           45.675077        6.452234       59.038070
  H           45.132069        5.113456       57.983769
  H           42.597958        8.270833       55.275464
  H           43.139949        9.610764       56.328822
  H           47.383760        4.634021       58.949872
  H           47.476957        4.813949       57.181484
  H           48.010951        6.130698       58.218357
  H           42.748420       10.409538       53.995927
  H           44.468772       10.544191       54.432716
  H           43.935610        9.226405       53.396732
  O           47.102081       24.439892       44.974887
  O           44.971932       24.551686       44.418304
  O           45.768921       25.999982       46.024575
  C           48.228079       24.881973       45.740372
  C           43.665268       25.121280       44.548015
  C           49.440925       24.064351       45.350402
  C           42.723435       24.416666       43.594983
  C           45.931053       25.090969       45.221700
  H           48.415000       25.942044       45.536045
  H           48.019157       24.748316       46.807679
  H           43.312565       24.995164       45.577750
  H           43.706656       26.189058       44.305726
  H           50.322080       24.376633       45.917892
  H           49.262552       22.999375       45.532124
  H           49.651782       24.173430       44.281453
  H           41.712853       24.828232       43.668047
  H           43.072876       24.518544       42.562172
  H           42.685192       23.344408       43.813247
  O           14.451110       41.401040       20.073621
  O           16.137786       40.912737       21.406476
  O           15.024520       39.186942       20.359994
  C           13.396570       41.016597       19.185126
  C           17.009506       39.970847       22.040180
  C           12.679845       42.259965       18.703547
  C           17.998904       40.720384       22.906832
  C           15.187827       40.377682       20.589482
  H           13.818293       40.477624       18.329499
  H           12.692378       40.365078       19.714556
  H           16.419163       39.286375       22.659577
  H           17.546441       39.398425       21.275589
  H           11.865472       42.002212       18.020642
  H           12.267850       42.819563       19.549788
  H           13.375256       42.930217       18.187625
  H           18.682530       40.029066       23.407566
  H           18.584661       41.422400       22.304131
  H           17.476030       41.312100       23.665327
  O           49.695481       21.113134        2.314224
  O           49.164319       18.974686        2.383003
  O           48.697092       20.165319        0.465466
  C           49.751392       22.375353        1.641209
  C           48.613706       17.794727        1.788736
  C           50.390374       23.395545        2.559081
  C           48.715442       16.651827        2.776273
  C           49.140288       20.091899        1.603615
  H           50.346940       22.275619        0.726979
  H           48.736310       22.695793        1.381239
  H           47.562773       17.970826        1.533414
  H           49.172934       17.548911        0.879118
  H           50.449138       24.374498        2.075140
  H           49.815829       23.493361        3.486089
  H           51.399867       23.080035        2.842608
  H           48.302607       15.731612        2.353461
  H           49.759574       16.475397        3.055283
  H           48.175922       16.890275        3.698714
  O           28.191646       44.768427       51.287253
  O           26.480865       43.378734       51.329678
  O           28.080940       43.207799       52.979950
  C           29.419702       45.270027       51.825350
  C           25.755083       42.293357       51.916048
  C           29.908437       46.410562       50.958230
  C           24.513288       42.028229       51.091758
  C           27.630704       43.731311       51.969792
  H           29.251490       45.627706       52.847217
  H           30.166856       44.468625       51.838568
  H           26.386759       41.398156       51.932125
  H           25.470033       42.556059       52.940891
  H           30.847804       46.818676       51.341678
  H           30.064084       46.072553       49.928405
  H           29.163757       47.212454       50.920432
  H           23.933239       41.202270       51.512867
  H           23.879842       42.920582       51.051263
  H           24.781412       41.781689       50.059205
  O           26.432889        8.977001       19.186043
  O           28.416194        8.019478       19.283372
  O           28.307358       10.317878       19.147851
  C           25.597563       10.136388       19.100457
  C           29.845762        8.085153       19.308948
  C           24.147972        9.700232       19.094813
  C           30.402282        6.680350       19.401759
  C           27.773714        9.218043       19.200626
  H           25.785274       10.786108       19.962472
  H           25.823564       10.681901       18.177420
  H           30.205629        8.566029       18.392481
  H           30.169002        8.669544       20.177608
  H           23.479978       10.563707       19.030042
  H           23.948882        9.034955       18.248182
  H           23.911308        9.137421       20.003793
  H           31.495606        6.693381       19.423529
  H           30.036608        6.179837       20.304507
  H           30.072743        6.078065       18.548825
  O           13.260080       23.137889       44.204328
  O           12.244597       25.094554       44.195473
  O           13.573898       24.534491       42.397656
  C           14.117179       22.161671       43.602954
  C           11.941899       26.352856       43.584177
  C           14.215481       20.960666       44.519198
  C           11.012976       27.131039       44.491555
  C           13.077109       24.281531       43.486881
  H           13.701382       21.856697       42.636235
  H           15.112592       22.593798       43.451037
  H           12.868765       26.917053       43.431669
  H           11.456767       26.181570       42.616771
  H           14.864800       20.192844       44.089275
  H           14.613014       21.253054       45.496690
  H           13.225048       20.528190       44.695312
  H           10.760337       28.100857       44.053802
  H           10.088522       26.571244       44.668194
  H           11.477225       27.294688       45.469578
  O           38.617909       35.576990       26.922392
  O           40.813579       35.388276       26.865455
  O           39.773523       35.544156       28.916514
  C           37.383586       35.706230       27.635846
  C           42.086765       35.301993       27.513671
  C           36.243931       35.770906       26.641572
  C           43.168076       35.175777       26.461702
  C           39.738545       35.506696       27.693987
  H           37.250790       34.841467       28.295384
  H           37.403241       36.622484       28.236473
  H           42.254624       36.205508       28.110448
  H           42.103968       34.424340       28.169412
  H           35.282936       35.870152       27.154054
  H           36.372134       36.620681       25.962999
  H           36.222282       34.869034       26.020953
  H           44.157027       35.107325       26.923534
  H           43.003593       34.286081       25.844797
  H           43.151851       36.037866       25.786885
  O           25.280846       37.260709       32.011998
  O           25.772252       35.177613       31.483745
  O           24.032552       36.213083       30.381881
  C           24.496743       38.447968       31.854290
  C           25.549505       33.985919       30.722902
  C           25.003678       39.504452       32.812642
  C           26.553582       32.935306       31.146982
  C           24.935755       36.216876       31.207355
  H           24.585229       38.809796       30.823906
  H           23.446616       38.223639       32.072391
  H           24.532552       33.620985       30.905351
  H           25.671492       34.205440       29.656367
  H           24.425184       40.427761       32.718595
  H           24.938395       39.150138       33.846670
  H           26.058234       39.726546       32.618746
  H           26.411630       32.008666       30.583788
  H           27.576231       33.292935       30.987374
  H           26.456036       32.718039       32.215681
  O           48.654095       33.893344        7.930836
  O           47.934946       35.785692        7.058102
  O           47.340968       33.805694        6.038467
  C           48.744350       32.464685        7.938569
  C           47.204016       36.518257        6.069303
  C           49.590671       32.030572        9.116221
  C           47.322951       37.998347        6.364239
  C           47.917117       34.430540        6.918704
  H           47.739957       32.035840        8.026476
  H           49.205659       32.122926        7.005267
  H           47.616786       36.304231        5.077098
  H           46.150450       36.218639        6.097522
  H           49.680819       30.941286        9.152655
  H           50.593171       32.466318        9.051913
  H           49.151609       32.380733       10.056233
  H           46.774389       38.589682        5.625725
  H           46.930583       38.225405        7.361073
  H           48.372667       38.309617        6.357387
  O           46.765710       14.709897       57.945876
  O           44.917197       14.313388       56.812032
  O           45.047978       16.242113       58.067330
  C           47.553869       15.518566       58.825723
  C           43.594388       14.669049       56.396925
  C           48.889973       14.843628       59.051252
  C           43.060721       13.592947       55.475511
  C           45.527717       15.196286       57.651045
  H           47.708880       16.504854       58.374449
  H           47.031322       15.633838       59.781922
  H           42.947073       14.757551       57.276589
  H           43.623081       15.628330       55.868224
  H           49.519409       15.436239       59.721044
  H           48.750557       13.848236       59.485732
  H           49.416860       14.704885       58.101436
  H           42.048579       13.833394       55.138237
  H           43.707887       13.480050       54.599374
  H           43.042925       12.623690       55.984493
  O           53.217731       49.107457       48.140477
  O           53.172418       46.944800       48.565544
  O           52.296351       48.394030       50.129225
  C           52.941710       50.466362       48.496092
  C           52.844743       45.833852       49.406411
  C           53.419533       51.374059       47.382831
  C           53.276777       44.553956       48.723027
  C           52.839329       48.171666       49.055481
  H           51.863183       50.594105       48.640672
  H           53.465495       50.713997       49.426137
  H           53.365473       45.935511       50.365142
  H           51.763080       45.813870       49.580111
  H           53.223727       52.423033       47.622232
  H           54.493659       51.244508       47.214055
  H           52.917767       51.126512       46.441576
  H           53.040678       43.682268       49.339806
  H           52.777865       44.447082       47.754084
  H           54.353790       44.566647       48.526254
  O           17.146449       29.297251       16.661820
  O           15.737961       29.092719       18.345313
  O           17.986595       28.782457       18.745611
  C           18.470658       29.274415       16.118477
  C           15.453473       28.836345       19.724433
  C           18.401788       29.586175       14.638733
  C           13.959809       28.941237       19.947517
  C           17.053149       29.032079       17.994901
  H           19.086782       30.024561       16.626525
  H           18.909398       28.281464       16.267522
  H           15.797137       27.829590       19.987107
  H           15.973448       29.572499       20.347546
  H           19.399179       29.577007       14.190262
  H           17.773947       28.854605       14.119470
  H           17.948363       30.568939       14.472627
  H           13.706275       28.750541       20.994109
  H           13.598020       29.937401       19.671925
  H           13.424625       28.223216       19.317547
  O           40.004571       24.665311       34.789746
  O           38.885075       25.766697       33.242653
  O           38.916040       26.606755       35.388859
  C           40.465203       24.504196       36.135529
  C           38.067267       26.863250       32.821468
  C           41.298564       23.243519       36.223734
  C           37.768260       26.716579       31.344686
  C           39.235900       25.766259       34.559128
  H           41.073066       25.370375       36.419567
  H           39.604514       24.426849       36.809244
  H           37.131017       26.860239       33.390752
  H           38.598628       27.804734       32.999880
  H           41.667769       23.089143       37.241504
  H           40.709306       22.370225       35.925159
  H           42.153587       23.298243       35.541862
  H           37.143355       27.540328       30.988412
  H           38.696185       26.699717       30.763432
  H           37.252717       25.770900       31.147853
  O           39.291247        8.635740       23.932473
  O           37.375760        8.395736       22.867990
  O           37.749722        7.136037       24.761707
  C           40.188850        8.307724       24.998300
  C           36.085884        7.793775       22.718004
  C           41.453036        9.126726       24.847807
  C           35.412541        8.370076       21.490694
  C           38.102498        7.970188       23.938945
  H           39.713222        8.534231       25.958985
  H           40.432101        7.240186       24.955294
  H           36.199845        6.710041       22.603142
  H           35.479373        8.003822       23.606030
  H           42.163218        8.900485       25.648092
  H           41.930839        8.924518       23.883530
  H           41.223739       10.197198       24.870635
  H           34.421578        7.930822       21.345616
  H           35.307802        9.456228       21.582826
  H           36.016293        8.183722       20.596493
  O            8.174497       23.545138       17.541153
  O            9.027250       22.100630       16.110759
  O           10.400127       23.738789       16.973604
  C            8.293115       24.678855       18.407113
  C           10.119546       21.584583       15.343153
  C            6.951656       24.946349       19.055584
  C            9.640576       20.390879       14.544741
  C            9.312641       23.185031       16.884589
  H            9.042687       24.471919       19.178968
  H            8.603123       25.553050       17.823729
  H           10.487107       22.361273       14.663219
  H           10.927457       21.279007       16.017298
  H            7.006265       25.808784       19.725826
  H            6.187187       25.137362       18.295245
  H            6.619548       24.074015       19.628076
  H           10.452455       19.970356       13.944730
  H            9.253029       19.612451       15.210355
  H            8.820048       20.676847       13.878562
  O           42.413646       41.701327       31.006321
  O           41.927375       39.555618       30.867426
  O           40.737445       41.041800       29.568123
  C           42.208335       43.065877       30.625369
  C           41.166881       38.469664       30.327995
  C           43.178897       43.942038       31.388211
  C           41.645640       37.175373       30.950410
  C           41.603841       40.791968       30.395251
  H           42.379603       43.174097       29.548616
  H           41.179634       43.360117       30.861706
  H           40.105362       38.619071       30.554962
  H           41.304863       38.431320       29.241691
  H           43.049188       44.994453       31.120633
  H           43.031985       43.831004       32.467611
  H           44.212131       43.647974       31.176162
  H           41.084207       36.322170       30.559466
  H           42.710568       37.020875       30.747319
  H           41.530775       37.205463       32.038868
  O            5.566158       37.374246       35.022540
  O            4.230715       39.042874       34.482084
  O            6.485505       39.464445       34.708041
  C            6.862995       36.844361       35.317004
  C            4.002272       40.418476       34.159337
  C            6.735581       35.365278       35.613076
  C            2.523949       40.627184       33.908728
  C            5.526272       38.705257       34.734539
  H            7.522824       36.993859       34.455193
  H            7.279563       37.361753       36.188460
  H            4.328694       41.048493       34.994313
  H            4.570943       40.682024       33.260603
  H            7.710795       34.926998       35.843008
  H            6.064071       35.198479       36.461761
  H            6.303280       34.836728       34.757062
  H            2.313110       41.670725       33.658590
  H            2.178536       39.990076       33.087773
  H            1.940295       40.350615       34.792864
  O           41.956889       15.177298       33.410316
  O           41.619628       16.932376       32.119667
  O           43.439457       15.583723       31.692803
  C           42.705834       14.016870       33.786829
  C           41.983237       17.776346       31.022336
  C           42.041398       13.367734       34.982122
  C           40.977571       18.902535       30.912163
  C           42.441255       15.868305       32.340726
  H           42.731531       13.311202       32.949085
  H           43.728922       14.311013       34.046502
  H           42.983554       18.188955       31.194897
  H           41.985969       17.190555       30.096373
  H           42.589264       12.475274       35.297331
  H           41.991941       14.067528       35.822870
  H           41.011002       13.084272       34.743495
  H           41.225790       19.568711       30.081143
  H           39.969063       18.504850       30.757427
  H           40.950247       19.486831       31.837738
  O           13.183261       28.692370        1.187171
  O           15.313592       28.133657        1.283843
  O           13.735278       26.454800        1.227116
  C           11.793931       28.352139        1.129905
  C           16.357216       27.155567        1.336980
  C           10.976060       29.625208        1.085611
  C           17.694247       27.863582        1.390473
  C           14.045429       27.638430        1.231910
  H           11.600626       27.756515        0.230847
  H           11.523846       27.769372        2.017652
  H           16.230925       26.535095        2.231253
  H           16.309419       26.521684        0.444526
  H            9.906466       29.401590        1.041294
  H           11.172268       30.240402        1.969949
  H           11.247859       30.227719        0.212619
  H           18.516612       27.143861        1.431910
  H           17.827474       28.502430        0.511093
  H           17.750336       28.515519        2.268352
  O           19.486236       45.113498       28.458776
  O           19.262635       44.149384       30.428625
  O           20.290774       42.971220       28.735192
  C           19.921760       45.104812       27.095135
  C           19.442702       43.039829       31.314682
  C           19.571033       46.432049       26.457160
  C           18.865752       43.391927       32.669288
  C           19.737150       43.974841       29.163495
  H           21.006076       44.951837       27.059108
  H           19.421388       44.291841       26.557209
  H           18.927234       42.161788       30.909720
  H           20.511785       42.820914       31.413193
  H           19.890499       46.459992       25.411616
  H           18.491144       46.607749       26.501677
  H           20.049692       47.256808       26.995368
  H           18.986687       42.563757       33.373213
  H           19.359048       44.279432       33.079386
  H           17.800661       43.631073       32.584265
  O           41.447673       30.225566       13.474713
  O           40.660431       31.981815       14.549729
  O           42.890039       31.449653       14.791616
  C           42.515197       29.338693       13.123829
  C           40.828709       33.100590       15.426460
  C           41.984594       28.275271       12.186186
  C           39.501700       33.813636       15.576181
  C           41.780366       31.240675       14.320286
  H           43.312169       29.904511       12.628725
  H           42.911977       28.868260       14.030426
  H           41.172344       32.748700       16.405616
  H           41.571984       33.786402       15.004832
  H           42.776290       27.578398       11.897078
  H           41.174124       27.712390       12.660863
  H           41.567700       28.731619       11.282330
  H           39.594195       34.676517       16.241674
  H           39.136044       34.155801       14.602321
  H           38.743040       33.135297       15.980074
  O           37.261867       26.068628       23.129683
  O           38.106310       27.862595       24.093228
  O           39.545669       26.194991       23.414848
  C           37.406336       24.784393       22.513939
  C           39.214959       28.627201       24.577900
  C           36.037610       24.266731       22.126390
  C           38.700313       29.924214       25.165008
  C           38.420466       26.660883       23.533425
  H           38.033919       24.876322       21.620558
  H           37.877685       24.091798       23.220197
  H           39.743300       28.055698       25.349197
  H           39.900316       28.841649       23.750334
  H           36.111023       23.284225       21.651740
  H           35.392209       24.186438       23.007312
  H           35.545914       24.958085       21.434093
  H           39.523596       30.534995       25.545995
  H           38.153701       30.498915       24.409944
  H           37.999383       29.725965       25.982464
  O           56.072662       22.512060       21.832058
  O           55.404035       24.343763       22.860466
  O           57.662329       23.890626       22.773096
  C           57.102194       21.621462       21.389147
  C           55.669775       25.544972       23.591980
  C           56.467147       20.460850       20.653434
  C           54.358301       26.237145       23.896503
  C           56.499425       23.611058       22.514848
  H           57.784038       22.156215       20.718647
  H           57.660777       21.249525       22.255349
  H           56.183220       25.296670       24.527597
  H           56.306030       26.204879       22.991756
  H           57.227467       19.758642       20.300141
  H           55.768527       19.926743       21.305871
  H           55.889745       20.818553       19.794559
  H           54.524742       27.161689       24.456427
  H           53.824406       26.475750       22.970647
  H           53.703673       25.582610       24.481213
  O            5.275221       10.894077        2.373535
  O            5.245694        8.690573        2.432843
  O            3.249588        9.812976        2.170878
  C            4.614975       12.159366        2.262212
  C            4.551942        7.439397        2.389275
  C            5.646999       13.263352        2.350076
  C            5.554199        6.314489        2.537141
  C            4.465072        9.800516        2.311020
  H            4.093582       12.215766        1.300230
  H            3.889286       12.265407        3.076331
  H            3.824267        7.396705        3.207398
  H            4.028439        7.345266        1.431334
  H            5.175640       14.246791        2.268406
  H            6.189586       13.209136        3.299641
  H            6.390494       13.160229        1.552836
  H            5.056718        5.341008        2.508054
  H            6.299620        6.354698        1.735944
  H            6.098733        6.405205        3.482706
  O           29.479449       36.416980       48.455172
  O           31.625726       36.851238       48.200735
  O           30.979621       34.671431       48.580002
  C           28.397655       35.508314       48.686081
  C           32.994993       36.438714       48.141044
  C           27.096207       36.281495       48.687621
  C           33.864529       37.651254       47.885203
  C           30.721451       35.857708       48.427384
  H           28.378909       34.753610       47.892034
  H           28.535974       35.014503       49.654419
  H           33.278181       35.974221       49.092206
  H           33.122889       35.713585       47.329626
  H           26.246096       35.615970       48.861940
  H           27.106807       37.052517       49.465071
  H           26.952419       36.795927       47.731747
  H           34.920483       37.371462       47.833448
  H           33.581122       38.137418       46.945782
  H           33.733952       38.393692       48.679290
  O           47.082285       32.284841       46.826009
  O           47.522272       34.390057       47.310055
  O           46.803097       32.997563       49.000204
  C           46.662241       30.968409       47.199963
  C           47.604757       35.477875       48.236597
  C           46.691877       30.075703       45.977762
  C           48.079473       36.714658       47.503921
  C           47.105079       33.202907       47.832369
  H           47.339974       30.572211       47.964258
  H           45.644133       31.010675       47.602863
  H           46.616349       35.662241       48.672162
  H           48.312525       35.225478       49.034048
  H           46.375659       29.059181       46.228138
  H           46.032354       30.468924       45.197108
  H           47.700236       30.037770       45.552576
  H           48.154120       37.567752       48.184110
  H           49.059305       36.539757       47.047275
  H           47.391103       36.969383       46.691456
  O           15.407015       29.345797       35.796677
  O           13.961160       28.210242       34.580190
  O           15.767459       27.092060       35.474511
  C           16.597828       29.426784       36.587042
  C           13.500654       26.994573       33.981263
  C           16.781270       30.853948       37.057287
  C           12.221528       27.273182       33.220990
  C           15.112498       28.111083       35.301839
  H           16.507821       28.760639       37.452253
  H           17.459173       29.122900       35.981733
  H           14.264402       26.614046       33.293843
  H           13.311922       26.250775       34.763384
  H           17.684598       30.952179       37.665850
  H           16.854801       31.534886       36.202926
  H           15.919093       31.178542       37.649147
  H           11.840702       26.362989       32.749271
  H           11.453352       27.671617       33.892064
  H           12.390109       28.028785       32.446727
  O            5.242722       38.787965       11.208673
  O            5.931845       40.881972       11.216742
  O            7.031412       39.354617       12.547529
  C            5.334926       37.430610       11.654047
  C            6.810894       41.916082       11.671189
  C            4.255717       36.614608       10.975058
  C            6.428675       43.218238       11.000295
  C            6.158686       39.644876       11.740500
  H            6.320762       37.027928       11.396333
  H            5.199020       37.392853       12.740677
  H            6.721497       42.019668       12.758358
  H            7.843873       41.656429       11.414087
  H            4.297198       35.569201       11.293495
  H            3.264236       37.016292       11.208789
  H            4.367514       36.657463        9.886631
  H            7.082160       44.032503       11.325763
  H            6.495712       43.124858        9.911271
  H            5.391935       43.482167       11.233424
  O           51.228718       46.699865       55.781046
  O           51.579765       48.796030       55.195657
  O           52.165233       48.133246       57.324225
  C           51.283765       45.632756       56.733685
  C           52.035636       50.122758       55.479570
  C           50.720978       44.377818       56.101246
  C           51.827903       50.988116       54.254906
  C           51.705507       47.900259       56.214465
  H           52.324311       45.462517       57.031551
  H           50.691644       45.900119       57.616050
  H           51.467208       50.531607       56.322417
  H           53.100199       50.095736       55.737531
  H           50.747837       43.540004       56.803632
  H           49.686030       44.538073       55.781537
  H           51.291786       44.107773       55.206671
  H           52.166582       52.011849       54.437299
  H           52.375970       50.581696       53.398383
  H           50.769958       51.010475       53.973674
  O            2.623695       57.629298       45.670802
  O            4.296820       56.404283       46.419006
  O            2.164199       55.919668       47.146969
  C            1.231988       57.959948       45.615168
  C            4.816006       55.336047       47.217725
  C            1.041416       59.134665       44.679593
  C            6.317901       55.271689       47.038920
  C            2.947534       56.582656       46.480613
  H            0.666200       57.097290       45.246190
  H            0.879204       58.224602       46.618244
  H            4.576159       55.518018       48.271299
  H            4.364457       54.389652       46.899911
  H           -0.013652       59.414735       44.613320
  H            1.615888       60.000241       45.025677
  H            1.406451       58.891467       43.676292
  H            6.748768       54.463817       47.636996
  H            6.574086       55.108110       45.986875
  H            6.782308       56.217773       47.335717
  O           26.778015       39.205165        7.517759
  O           28.557465       37.922323        7.299366
  O           28.858249       40.139136        7.854455
  C           26.162716       40.468316        7.791854
  C           29.974221       37.720267        7.324002
  C           24.660599       40.320337        7.676424
  C           30.271997       36.274587        6.987639
  C           28.138618       39.186857        7.585211
  H           26.426131       40.790507        8.805387
  H           26.517989       41.211872        7.069660
  H           30.449600       38.377228        6.587065
  H           30.359253       37.954893        8.322635
  H           24.157264       41.269616        7.880198
  H           24.382645       39.981051        6.673109
  H           24.292380       39.566599        8.380201
  H           31.348921       36.084491        6.997537
  H           29.788025       35.604278        7.705721
  H           29.876999       36.019661        5.998787
  O           34.921043       32.506769        8.514169
  O           33.706720       33.521560       10.048913
  O           34.436153       34.742871        8.235302
  C           35.656286       32.509476        7.285885
  C           33.055161       34.683005       10.573460
  C           36.208877       31.121923        7.039070
  C           32.379432       34.321850       11.879124
  C           34.362033       33.697889        8.867533
  H           34.991540       32.794946        6.463048
  H           36.479810       33.228993        7.354894
  H           33.796720       35.471013       10.746065
  H           32.307465       35.037880        9.855420
  H           36.778065       31.087895        6.105867
  H           36.861751       30.814857        7.862769
  H           35.397983       30.388023        6.985684
  H           31.870101       35.188950       12.308912
  H           31.647445       33.521920       11.725852
  H           33.112094       33.948018       12.601823
  O           19.670706       38.133354        3.324400
  O           20.080474       39.597452        4.920747
  O           20.572960       37.379062        5.306828
  C           19.670795       36.796750        2.811797
  C           20.548455       39.933047        6.231092
  C           19.110488       36.808048        1.405558
  C           20.402602       41.425387        6.439535
  C           20.151690       38.277486        4.590893
  H           20.696129       36.410800        2.798631
  H           19.050377       36.160005        3.452341
  H           19.955693       39.395132        6.979383
  H           21.601814       39.647048        6.327035
  H           19.095942       35.799795        0.982220
  H           18.091400       37.208600        1.399859
  H           19.710028       37.455302        0.757003
  H           20.752029       41.717469        7.433812
  H           20.975581       41.977413        5.687107
  H           19.356656       41.729648        6.328804
  O           29.937295       10.899692       28.070633
  O           29.763764        8.746594       28.510949
  O           31.863254        9.637910       28.178457
  C           30.713978       12.066709       27.780621
  C           30.342057        7.454734       28.723803
  C           29.783646       13.249262       27.614406
  C           29.236094        6.459391       29.002982
  C           30.646703        9.749955       28.246621
  H           31.409980       12.256328       28.605283
  H           31.279910       11.908122       26.855835
  H           30.896269        7.150817       27.828737
  H           31.026297        7.497257       29.578539
  H           30.345499       14.160582       27.391210
  H           29.069437       13.067025       26.804647
  H           29.197371       13.409404       28.525255
  H           29.643755        5.458589       29.170930
  H           28.661121        6.759608       29.885287
  H           28.533313        6.418792       28.164359
  O           47.621323       57.229437       16.140436
  O           47.920662       55.757396       17.753914
  O           49.759527       56.482367       16.568229
  C           48.119785       58.065759       15.090972
  C           48.760768       54.912608       18.547127
  C           46.962515       58.815569       14.466401
  C           47.906187       54.173417       19.554643
  C           48.557607       56.489272       16.797439
  H           48.842652       58.778078       15.503897
  H           48.611696       57.446171       14.332822
  H           49.272877       54.193659       17.897885
  H           49.504175       55.524364       19.070259
  H           47.308532       59.466083       13.658253
  H           46.221905       58.116164       14.064724
  H           46.449079       59.426046       15.216542
  H           48.517970       53.516697       20.179496
  H           47.373299       54.879722       20.199894
  H           47.145907       53.570909       19.046905
  O           22.602681       31.572243       19.221341
  O           20.888278       32.707031       18.425793
  O           20.784895       30.404400       18.418325
  C           23.258600       30.339990       19.538507
  C           19.586402       32.770921       17.834464
  C           24.611685       30.643777       20.145511
  C           19.205378       34.222658       17.636773
  C           21.365421       31.453237       18.663533
  H           22.650051       29.776071       20.254122
  H           23.387078       29.749031       18.624768
  H           19.599163       32.256564       16.867027
  H           18.860690       32.284445       18.495712
  H           25.141815       29.721875       20.400573
  H           25.225655       31.223289       19.448215
  H           24.500711       31.249912       21.050660
  H           18.212960       34.308630       17.185424
  H           19.205880       34.754972       18.593762
  H           19.932068       34.727525       16.991894
  O           21.780270       15.542412       17.832699
  O           22.792059       17.482670       18.100095
  O           20.492006       17.449993       17.953311
  C           20.598477       14.750125       17.674838
  C           22.765946       18.906113       18.247608
  C           20.994302       13.294698       17.545870
  C           24.185307       19.413254       18.389118
  C           21.576438       16.883303       17.961492
  H           19.951238       14.881641       18.549038
  H           20.062626       15.069219       16.773893
  H           22.298395       19.356168       17.364712
  H           22.187745       19.170221       19.140075
  H           20.112872       12.659032       17.423357
  H           21.656722       13.150102       16.686041
  H           21.547196       12.965701       18.431917
  H           24.202511       20.500666       18.504176
  H           24.672373       18.958038       19.257870
  H           24.781165       19.141031       17.511800
  O           54.675021       42.811046       22.374519
  O           55.684718       43.216096       24.291879
  O           55.752127       41.074810       23.441463
  C           54.290456       41.926832       21.316433
  C           56.453193       42.794664       25.423459
  C           53.490046       42.702556       20.292141
  C           56.674086       43.980203       26.338613
  C           55.406451       42.246733       23.375861
  H           55.187234       41.508604       20.845991
  H           53.680187       41.113212       21.724176
  H           55.911076       42.008392       25.960620
  H           57.418975       42.404019       25.084006
  H           53.179018       42.055531       19.467145
  H           52.598827       43.142298       20.751891
  H           54.081059       43.531168       19.888265
  H           57.259821       43.693006       27.216355
  H           57.199506       44.782482       25.809966
  H           55.716540       44.393318       26.672200
  O           30.483282       14.885272       53.425340
  O           30.221129       16.500022       51.947612
  O           29.056466       14.533406       51.649552
  C           30.197317       13.572593       53.919677
  C           29.635914       17.031554       50.754453
  C           30.985576       13.342166       55.191341
  C           30.159064       18.434539       50.531414
  C           29.839457       15.234179       52.276480
  H           29.125121       13.486442       54.128041
  H           30.482826       12.828891       53.167314
  H           29.903733       16.396848       49.902349
  H           28.545749       17.055661       50.861818
  H           30.790332       12.345670       55.597389
  H           32.059500       13.442901       55.002786
  H           30.724168       14.089660       55.947601
  H           29.730984       18.872178       49.625203
  H           29.914629       19.077029       51.383849
  H           31.250151       18.429098       50.440107
  O           47.582017        9.077317       20.974975
  O           47.604198        6.911492       21.385499
  O           45.569519        7.964746       21.133326
  C           46.888030       10.304272       20.725501
  C           46.935756        5.665018       21.604860
  C           47.900368       11.414705       20.541955
  C           47.970631        4.584673       21.836570
  C           46.792666        7.982651       21.161403
  H           46.281408       10.202808       19.818774
  H           46.236201       10.534443       21.575677
  H           46.285431        5.749000       22.482745
  H           46.330556        5.415595       20.726175
  H           47.403041       12.369393       20.348985
  H           48.526934       11.516476       21.434183
  H           48.571380       11.190227       19.706274
  H           47.493095        3.615890       22.008088
  H           48.640197        4.501060       20.974087
  H           48.595735        4.828881       22.701698
  O            9.432501       55.264104        2.706603
  O           11.331340       56.323697        3.069222
  O            9.353558       57.441365        3.459159
  C            8.001936       55.213939        2.691133
  C           12.069410       57.483442        3.467813
  C            7.561761       53.844851        2.218458
  C           13.550004       57.186074        3.361907
  C            9.975117       56.445465        3.114131
  H            7.619194       55.397557        3.701199
  H            7.617002       55.981842        2.010832
  H           11.812649       58.322861        2.811987
  H           11.816339       57.739522        4.502678
  H            6.470876       53.771411        2.194450
  H            7.952076       53.639132        1.216286
  H            7.954296       53.064539        2.878790
  H           14.145509       58.053546        3.660009
  H           13.819019       56.336809        3.998748
  H           13.815421       56.910634        2.335981
  O           33.470441       18.579097       20.190959
  O           31.726922       19.896661       19.901153
  O           33.135489       19.523597       18.115202
  C           34.647234       17.923499       19.706581
  C           30.912511       20.745727       19.086012
  C           35.257687       17.112900       20.829904
  C           29.759331       21.267859       19.916285
  C           32.810892       19.350661       19.282219
  H           34.380481       17.261687       18.875143
  H           35.366047       18.673697       19.358488
  H           31.513639       21.584857       18.718364
  H           30.526676       20.173937       18.234687
  H           36.161540       16.597172       20.493638
  H           35.513352       17.758675       21.676441
  H           34.543979       16.370008       21.201041
  H           29.114699       21.922159       19.322702
  H           29.158983       20.439183       20.306241
  H           30.129621       21.826893       20.781851
  O           26.634193       17.575192       42.312159
  O           28.572599       18.622150       42.232899
  O           28.558224       16.319759       42.124994
  C           25.848785       16.378366       42.308510
  C           30.000803       18.621167       42.138749
  C           24.385493       16.748654       42.423574
  C           30.498203       20.050564       42.173647
  C           27.981042       17.395005       42.213895
  H           26.020030       15.832097       41.374323
  H           26.139052       15.748577       43.156903
  H           30.421906       18.062052       42.981792
  H           30.304514       18.146338       41.199140
  H           23.754811       15.855211       42.423859
  H           24.201566       17.311513       43.344647
  H           24.084590       17.393681       41.591465
  H           31.588957       20.086999       42.103448
  H           30.071206       20.627487       41.346593
  H           30.186775       20.544560       43.099832
  O           48.964735       13.084300       56.188191
  O           49.801525       14.896499       55.252489
  O           51.251208       13.375730       56.200400
  C           49.115778       11.842863       56.884819
  C           50.908007       15.724708       54.880469
  C           47.747643       11.237424       57.115537
  C           50.386211       16.952379       54.164680
  C           50.122072       13.747103       55.910003
  H           49.726609       11.159371       56.284681
  H           49.608444       12.021747       57.847076
  H           51.457150       16.025915       55.779566
  H           51.576089       15.164988       54.216431
  H           47.826033       10.284970       57.647220
  H           47.118629       11.917489       57.699375
  H           47.234891       11.069401       56.162718
  H           51.207673       17.609305       53.865265
  H           49.819040       16.666425       53.272642
  H           49.702170       17.513197       54.809978
  O           25.505360       23.613378       39.000514
  O           23.609729       24.732779       38.885001
  O           25.557359       25.900943       39.278688
  C           26.924381       23.555789       39.180331
  C           22.863782       25.953396       38.932864
  C           27.377328       22.115628       39.069181
  C           21.399207       25.645448       38.704853
  C           24.953092       24.856568       39.075367
  H           27.415042       24.158783       38.408261
  H           27.183385       23.949990       40.169362
  H           22.994830       26.423148       39.914097
  H           23.224989       26.632941       38.152918
  H           28.459829       22.034719       39.202018
  H           26.881288       21.496195       39.823675
  H           27.109059       21.701602       38.091621
  H           20.798181       26.558607       38.734990
  H           21.254262       25.158623       37.734710
  H           21.027867       24.952404       39.466848
  O           32.526332       55.344665       56.892817
  O           30.571433       54.450766       56.403804
  O           32.293726       53.055974       57.037142
  C           33.893668       55.234983       57.302250
  C           29.706141       53.320422       56.254729
  C           34.505702       56.618624       57.352553
  C           28.340715       53.799956       55.810364
  C           31.843461       54.169235       56.802388
  H           33.941768       54.772655       58.294410
  H           34.441073       54.613978       56.584366
  H           30.121592       52.639086       55.503835
  H           29.620727       52.796942       57.213499
  H           35.553359       56.571839       57.662757
  H           34.448762       57.101227       56.371295
  H           33.957623       57.257238       58.053117
  H           27.652179       52.959396       55.686357
  H           27.919774       54.496720       56.542835
  H           28.412332       54.341358       54.861368
  O           37.596110       47.715002       23.641867
  O           37.010697       49.341099       22.273320
  O           38.372507       49.843921       24.063711
  C           38.289740       47.229584       24.796215
  C           37.035656       50.712589       21.864632
  C           38.044757       45.741662       24.929064
  C           36.198462       50.869434       20.613111
  C           37.726529       49.048482       23.394991
  H           39.362957       47.419459       24.683992
  H           37.919957       47.746735       25.688669
  H           36.626356       51.339494       22.664708
  H           38.068930       51.013611       21.658968
  H           38.561730       45.336703       25.803562
  H           36.973781       45.534291       25.024054
  H           38.392965       45.212488       24.035904
  H           36.195568       51.908523       20.272107
  H           36.584835       50.234470       19.808920
  H           35.166075       50.555094       20.798063
  O           22.823763       21.779094       54.074505
  O           22.563808       22.467193       56.152669
  O           21.713652       23.764416       54.447588
  C           22.642883       21.939116       52.663496
  C           22.086155       23.412868       57.115050
  C           23.270430       20.761103       51.949319
  C           22.450800       22.930800       58.503015
  C           22.305848       22.772217       54.850132
  H           21.572162       21.982768       52.435260
  H           23.122855       22.868440       52.336935
  H           22.548584       24.388632       56.928764
  H           20.997630       23.503603       57.028753
  H           23.150304       20.851237       50.866062
  H           24.338234       20.693406       52.182181
  H           22.813100       19.822382       52.278959
  H           22.099766       23.631908       59.265394
  H           22.010291       21.947275       58.697476
  H           23.535613       22.817799       58.599190
  O            9.972879       38.328584       31.612482
  O            8.297841       37.578580       30.391187
  O           10.297205       38.053192       29.347088
  C           11.320348       38.791129       31.752665
  C            7.732247       37.184590       29.136791
  C           11.579710       39.120391       33.207277
  C            6.297213       36.755202       29.356119
  C            9.595046       37.992734       30.347345
  H           12.011492       38.008152       31.421442
  H           11.464454       39.687335       31.138900
  H            7.763287       38.030171       28.440596
  H            8.309015       36.350381       28.722060
  H           12.603178       39.478011       33.350871
  H           10.883928       39.889558       33.558396
  H           11.421888       38.238045       33.836218
  H            5.833073       36.446651       28.415178
  H            6.248385       35.921549       30.064514
  H            5.711641       37.573607       29.787579
  O           33.488636       24.737826       50.516254
  O           32.723253       23.442907       48.904673
  O           34.932707       24.096165       48.838168
  C           34.540548       25.479862       51.142462
  C           32.900883       22.706110       47.690502
  C           34.003544       26.132121       52.398552
  C           31.589585       22.048530       47.316487
  C           33.828618       24.092454       49.365588
  H           35.362354       24.802363       51.399505
  H           34.905265       26.249254       50.452769
  H           33.213931       23.388097       46.892033
  H           33.670486       21.940149       47.837410
  H           34.783292       26.709025       52.903699
  H           33.168769       26.799318       52.159778
  H           33.618304       25.376242       53.090829
  H           31.689547       21.475345       46.390492
  H           31.254164       21.376802       48.113645
  H           30.805184       22.800818       47.183764
  O           27.621955       41.572809       39.350580
  O           26.120297       40.397848       38.244095
  O           25.395132       42.110797       39.605270
  C           27.982492       42.622207       40.255041
  C           24.766054       40.105289       37.884834
  C           29.488514       42.646937       40.406252
  C           24.753189       38.941464       36.916771
  C           26.287322       41.430710       39.116725
  H           27.634538       43.582202       39.857826
  H           27.515565       42.440762       41.229575
  H           24.197773       39.844532       38.784679
  H           24.315447       40.985068       37.412067
  H           29.799718       43.439378       41.092683
  H           29.853644       41.686907       40.785773
  H           29.970584       42.809483       39.436615
  H           23.730853       38.690446       36.620429
  H           25.332943       39.180507       36.019035
  H           25.217093       38.058784       37.368997
  O           35.503499       36.594180       41.996907
  O           35.352814       38.499855       40.898947
  O           33.630411       36.979815       40.710102
  C           34.984632       35.314657       42.374887
  C           34.662050       39.396726       40.023104
  C           35.970331       34.637615       43.303105
  C           35.495418       40.647344       39.840749
  C           34.716919       37.322745       41.156307
  H           34.024844       35.446521       42.886610
  H           34.838208       34.700905       41.479048
  H           34.505461       38.911606       39.053157
  H           33.691886       39.658749       40.459786
  H           35.604470       33.654520       43.612413
  H           36.941041       34.514956       42.811484
  H           36.141072       35.248342       44.195781
  H           34.995768       41.356732       39.175078
  H           35.675910       41.134149       40.804921
  H           36.475988       40.399380       39.421421
  O           45.457967       18.609872       50.039781
  O           43.260662       18.726960       49.905763
  O           44.471661       20.688136       49.894662
  C           46.750521       19.223040       50.090776
  C           42.043821       19.473631       49.803714
  C           47.804960       18.142230       50.198418
  C           40.875632       18.511156       49.775798
  C           44.403800       19.467321       49.941600
  H           46.912856       19.809098       49.179390
  H           46.807123       19.883584       50.963208
  H           41.952108       20.142071       50.667100
  H           42.056052       20.067780       48.883169
  H           48.807680       18.576795       50.239741
  H           47.645190       17.535849       51.096076
  H           47.749095       17.462613       49.341675
  H           39.926942       19.049612       49.698005
  H           40.962705       17.823925       48.927673
  H           40.860395       17.897076       50.682171
  O           43.197327       11.686105       13.889740
  O           45.272185       12.247154       13.399834
  O           43.934313       11.401027       11.724417
  C           41.911555       11.174583       13.523123
  C           46.355991       12.376425       12.473936
  C           41.014272       11.176596       14.742327
  C           47.557488       12.945979       13.197686
  C           44.115801       11.743149       12.885112
  H           41.476008       11.807418       12.741932
  H           42.019758       10.151906       13.144859
  H           46.604244       11.391620       12.062611
  H           46.062174       13.047562       11.659189
  H           40.020769       10.790635       14.497410
  H           41.445633       10.562128       15.539430
  H           40.910930       12.190351       15.143114
  H           48.406633       13.058399       12.517749
  H           47.319147       13.923330       13.630312
  H           47.852344       12.294700       14.026983
  O           39.560888        8.501420       58.698476
  O           37.436399        7.916953       58.629428
  O           39.006327        6.470420       57.760103
  C           40.944937        8.250108       58.432914
  C           36.394170        6.998348       58.285109
  C           41.762570        9.425353       58.924700
  C           35.062811        7.582480       58.707097
  C           38.699517        7.521288       58.306675
  H           41.256986        7.338191       58.953946
  H           41.092425        8.121891       57.354737
  H           36.398257        6.830686       57.202274
  H           36.561109        6.046423       58.801382
  H           42.828167        9.266307       58.737067
  H           41.449646       10.348414       58.425649
  H           41.611416        9.577605       59.998470
  H           34.241653        6.904405       58.458273
  H           35.049863        7.772700       59.785445
  H           34.889636        8.543934       58.212674
  O           26.502191       48.512863       23.649250
  O           25.803719       50.248020       22.482551
  O           27.484717       50.563329       24.027764
  C           27.348910       47.920404       24.639873
  C           25.852622       51.637033       22.140669
  C           27.028293       46.444595       24.743653
  C           24.825419       51.916314       21.064260
  C           26.679944       49.848265       23.446196
  H           28.397318       48.051950       24.350086
  H           27.174816       48.405885       25.606650
  H           25.631379       52.239631       23.028693
  H           26.853376       51.887171       21.771224
  H           27.658819       45.959184       25.493862
  H           25.977913       46.296484       25.015278
  H           27.180235       45.948464       23.779403
  H           24.835648       52.971812       20.778219
  H           25.022868       51.307298       20.175835
  H           23.821054       51.654059       21.412557
  O           20.178116       36.885285       54.005419
  O           21.955316       37.618474       55.084222
  O           21.288427       38.727470       53.176804
  C           19.238334       36.962940       52.928362
  C           23.045121       38.533296       55.239332
  C           18.227576       35.845540       53.074528
  C           23.832029       38.157459       56.476799
  C           21.154230       37.835719       54.003827
  H           18.726681       37.931286       52.959315
  H           19.767313       36.861087       51.974179
  H           23.694057       38.480928       54.357971
  H           22.654887       39.551798       55.343921
  H           17.492202       35.875050       52.265607
  H           18.726281       34.870764       53.063552
  H           17.702884       35.923351       54.032470
  H           24.674904       38.838105       56.626070
  H           23.191674       38.187642       57.364617
  H           24.213781       37.134523       56.394916
  O           41.376372       46.248803        6.350978
  O           41.470697       45.047121        8.196753
  O           40.665556       47.203074        8.325098
  C           41.068020       47.458857        5.651006
  C           41.270146       44.884656        9.604594
  C           41.404041       47.280126        4.185836
  C           41.701617       43.490319       10.006413
  C           41.123451       46.263024        7.689617
  H           40.001222       47.682873        5.761466
  H           41.658032       48.282526        6.068274
  H           41.866528       45.627208       10.146446
  H           40.209758       45.026650        9.841197
  H           41.180152       48.188544        3.619576
  H           42.464449       47.037643        4.060334
  H           40.834964       46.447847        3.758666
  H           41.561439       43.331430       11.079308
  H           41.126310       42.736179        9.459164
  H           42.755726       43.326847        9.759492
  O           14.055412       56.658426       39.970023
  O           13.809169       57.529758       41.979989
  O           12.704661       55.567823       41.486300
  C           13.782109       55.647388       38.994123
  C           13.254780       57.513967       43.299473
  C           14.527323       55.978909       37.718847
  C           13.750975       58.726936       44.057296
  C           13.446912       56.490205       41.177315
  H           14.112955       54.674378       39.373904
  H           12.705084       55.613456       38.795316
  H           12.161139       57.538854       43.236333
  H           13.568748       56.600411       43.816588
  H           14.340445       55.224672       36.949301
  H           14.220246       56.957884       37.336320
  H           15.604876       56.034316       37.905447
  H           13.345543       58.746536       45.072796
  H           14.844621       58.725606       44.113185
  H           13.460170       59.648542       43.542599
  O           40.757718       44.867344       40.329379
  O           40.415801       47.031275       40.574971
  O           42.580685       46.242845       40.642151
  C           41.624225       43.730360       40.253851
  C           40.891620       48.365530       40.779895
  C           40.788562       42.487433       40.033900
  C           39.710002       49.311452       40.808356
  C           41.375500       46.065425       40.527044
  H           42.323258       43.858766       39.420001
  H           42.186880       43.637309       41.189490
  H           41.431189       48.418539       41.732110
  H           41.567387       48.641777       39.962831
  H           41.420655       41.597191       39.971236
  H           40.071770       42.355262       40.851062
  H           40.205902       42.573152       39.110770
  H           40.038361       50.342980       40.963692
  H           39.149597       49.256423       39.869152
  H           39.015713       49.036962       41.609266
  O           48.884570       51.152037        2.198535
  O           49.333140       53.301771        2.391535
  O           47.140659       52.655672        2.094152
  C           47.965850       50.068835        2.019931
  C           48.926908       54.673580        2.433365
  C           48.734573       48.764753        2.023580
  C           50.149467       55.543979        2.632248
  C           48.330279       52.396460        2.215846
  H           47.235992       50.070578        2.837087
  H           47.442780       50.187498        1.064433
  H           48.434122       54.937344        1.490895
  H           48.227603       54.822200        3.263697
  H           48.061344       47.913510        1.888863
  H           49.481228       48.755174        1.222687
  H           49.277852       48.640268        2.966109
  H           49.874686       56.601873        2.669041
  H           50.663550       55.279651        3.562321
  H           50.866600       55.392997        1.818759
  O           32.364461        6.106525       55.541114
  O           33.484785        8.004739       55.502663
  O           31.260841        8.049490       56.106756
  C           31.164340        5.357260       55.759252
  C           33.564281        9.423181       55.676828
  C           31.439213        3.894576       55.482524
  C           34.972469        9.880533       55.361177
  C           32.266555        7.448699       55.753503
  H           30.839267        5.482742       56.798012
  H           30.379788        5.720291       55.085942
  H           32.855355        9.914335       55.000921
  H           33.315666        9.678385       56.712988
  H           30.540794        3.291185       55.639882
  H           31.782757        3.755110       54.452213
  H           32.234687        3.521561       56.136047
  H           35.069100       10.962875       55.484457
  H           35.695087        9.384032       56.017298
  H           35.242345        9.616203       54.333492
  O            6.757381       25.481511        4.830756
  O            4.910843       24.338453        5.209618
  O            5.002752       26.539955        5.886224
  C            7.532223       26.682815        4.906661
  C            3.576976       24.234180        5.718103
  C            8.886752       26.436347        4.277310
  C            3.063733       22.831403        5.471936
  C            5.505186       25.554828        5.362505
  H            7.014981       27.485492        4.369436
  H            7.658606       26.970052        5.956509
  H            3.578723       24.444257        6.793521
  H            2.933550       24.958845        5.206799
  H            9.506651       27.336373        4.318260
  H            9.409098       25.623564        4.792629
  H            8.776011       26.130472        3.231755
  H            2.043737       22.716245        5.849224
  H            3.073069       22.599916        4.401650
  H            3.707495       22.093838        5.962250
  O           11.174255       44.610144       38.516895
  O           10.849792       42.823129       39.766343
  O            9.871566       42.902246       37.680756
  C           10.974950       45.356759       37.311857
  C           10.280061       41.529009       39.988364
  C           11.715621       46.672624       37.419017
  C           10.692588       41.037310       41.359442
  C           10.561135       43.394404       38.563634
  H           11.358560       44.784365       36.460005
  H            9.904606       45.544823       37.171663
  H            9.187821       41.596456       39.932511
  H           10.641453       40.834499       39.221801
  H           11.584459       47.270222       36.512556
  H           11.355414       47.248922       38.277589
  H           12.785364       46.500931       37.577706
  H           10.273403       40.047867       41.562631
  H           11.783514       40.981816       41.436811
  H           10.353800       41.731103       42.135788
  O           32.462241       43.314876       13.516949
  O           33.356044       44.194343       11.703810
  O           34.376506       42.360836       12.657625
  C           32.446291       42.343863       14.568687
  C           34.360685       44.227852       10.684886
  C           31.252232       42.604281       15.461985
  C           34.070653       45.377940        9.744152
  C           33.489405       43.203110       12.628935
  H           32.373689       41.339383       14.137191
  H           33.369909       42.423186       15.152892
  H           35.344629       44.366543       11.146707
  H           34.349211       43.283388       10.129528
  H           31.209171       41.878399       16.278833
  H           31.301304       43.612244       15.886977
  H           30.321562       42.546339       14.887959
  H           34.821252       45.433106        8.950705
  H           33.081792       45.262725        9.288011
  H           34.060885       46.327991       10.288345
  O           23.844762       49.068083        3.652151
  O           25.578015       48.112074        2.681737
  O           24.619017       47.069393        4.499976
  C           22.824357       49.102409        4.655578
  C           26.537043       47.054774        2.576784
  C           21.994706       50.355274        4.472311
  C           27.460620       47.340692        1.411856
  C           24.674656       47.988433        3.694081
  H           22.185539       48.217727        4.557132
  H           23.288411       49.107667        5.648193
  H           27.118088       46.995509        3.503894
  H           26.016628       46.104713        2.412106
  H           21.203209       50.413778        5.224713
  H           22.623162       51.248585        4.550112
  H           21.538548       50.373275        3.477020
  H           28.208354       46.550188        1.302321
  H           26.891653       47.420825        0.479632
  H           27.975010       48.296829        1.553428
  P           45.645707       56.334028        7.246611
  F           45.450117       55.361119        7.369686
  F           46.240155       57.137881        7.225640
  F           44.925176       56.984237        7.005614
  F           46.277385       55.596398        7.485374
  F           44.669988       56.428409        7.049178
  F           46.598924       56.605179        7.379903
  Li          45.572981       57.315907        7.072028
  P            6.933686       55.026834        6.981793
  F            7.780802       54.723324        6.545636
  F            6.393773       55.414922        7.728700
  F            6.052875       54.959620        6.513103
  F            7.864267       55.044163        7.347639
  F            6.483811       54.740716        6.135824
  F            7.029810       55.396532        7.905912
  Li           5.978909       55.247448        7.180749
  P           52.968371       14.086902        9.893378
  F           53.109114       13.135371        9.619998
  F           52.596913       15.009261        9.787267
  F           53.376136       14.455025       10.728978
  F           52.615271       13.610854        9.087882
  F           53.541107       13.866283       10.682817
  F           52.399340       14.634822        9.280270
  Li          52.985570       14.962226       10.376456
  P           26.993508       11.527286       44.230591
  F           27.489409       10.659135       44.211803
  F           26.173756       12.097854       44.181129
  F           27.468452       12.396045       44.370952
  F           26.630644       10.604680       44.099244
  F           27.887645       11.948692       44.381754
  F           26.003982       11.464589       44.100899
  Li          26.748912       12.495006       44.290108
  P           21.938440       27.424107       59.290548
  F           20.990534       27.105627       59.290547
  F           22.654272       28.122371       59.290549
  F           22.704415       26.781225       59.290550
  F           21.098383       27.966720       59.290546
  F           22.185195       26.455074       59.290550
  F           22.062760       28.416306       59.290547
  Li          22.937122       27.473983       59.290550
  P           49.638511        9.674567        9.847399
  F           48.769210       10.144309       10.001070
  F           50.612860        9.632061        9.626437
  F           49.715819        8.680943        9.929552
  F           49.440918       10.653488        9.794533
  F           49.134310        8.834772       10.048495
  F           50.412524       10.261235        9.609413
  Li          50.356004        8.984815        9.750970
  P           52.978651       51.859552        6.484194
  F           52.271488       52.452425        6.098995
  F           53.858133       51.673620        6.922291
  F           52.870710       50.865625        6.505965
  F           52.974437       52.856704        6.408079
  F           52.368875       51.103616        6.246186
  F           53.788652       52.325344        6.840353
  Li          53.508112       51.071550        6.798164
  P            5.058909       45.093048       25.956568
  F            4.175014       44.659043       26.130712
  F            5.709496       45.627367       25.416912
  F            5.806404       45.037508       26.618520
  F            4.245117       45.080654       25.375436
  F            5.327850       44.731322       26.849169
  F            5.139733       45.578866       25.086302
  Li           6.000700       45.421390       26.027800
  P           43.714196       26.393199       53.546958
  F           43.343149       26.028683       54.401011
  F           43.925512       27.120952       52.894494
  F           44.149508       25.797892       52.871585
  F           43.261230       26.885507       54.290314
  F           43.969095       25.448273       53.341885
  F           43.619827       27.380482       53.419362
  Li          44.148110       26.494870       52.651841
  P           30.684085        9.919599        6.182359
  F           31.309826       10.432415        6.770088
  F           30.228556        9.710268        5.317107
  F           30.144986        9.155282        6.536202
  F           31.269287       10.694695        5.943845
  F           30.482100        9.377211        6.997792
  F           30.637341       10.221780        5.230301
  Li          30.014210        9.268275        5.826134
  P           27.795854       22.715047       23.997184
  F           28.115851       21.778803       24.142114
  F           27.851251       23.709714       24.084113
  F           26.953084       22.905913       23.493869
  F           28.614716       22.403644       24.479487
  F           27.029921       22.297756       23.508176
  F           28.370645       23.435062       24.385908
  Li          27.273340       23.521938       23.721940
  P           43.034383       22.099217       32.548284
  F           42.977309       22.949344       32.024851
  F           42.724446       21.441172       33.234509
  F           43.774796       21.443823       32.399078
  F           42.347644       22.823694       32.608672
  F           43.860531       21.914804       32.015946
  F           42.308865       21.954392       33.221012
  Li          43.314828       21.213569       32.918192
  P           50.292688       36.500640       22.184432
  F           51.095474       35.913776       22.289702
  F           49.775736       37.349051       22.298218
  F           49.468382       36.177934       21.719250
  F           51.165032       36.710751       22.626013
  F           49.878520       35.722183       21.712857
  F           50.372791       37.418974       22.571936
  Li          49.391179       36.866056       21.952904
  P           39.902607        3.157290       16.843934
  F           39.698932        4.086662       17.151734
  F           40.466257        2.455934       16.407602
  F           39.261187        2.405350       16.996188
  F           40.460620        3.981785       16.749311
  F           39.013801        2.914259       17.232357
  F           40.780262        3.036396       16.380232
  Li          39.861430        2.177837       16.646886
  P            9.515314       47.204041       21.445834
  F            8.753635       46.561099       21.365679
  F           10.477625       47.451103       21.559440
  F            9.369499       48.192568       21.406227
  F            9.537855       46.204536       21.470438
  F            8.823996       47.919423       21.344732
  F           10.418962       46.793233       21.566545
  Li          10.076216       48.030242       21.497162
  P           57.722643       52.346814       27.648627
  F           57.727861       52.056021       28.605376
  F           57.580454       52.214825       26.667633
  F           57.990307       53.273239       27.383850
  F           57.478151       51.455559       28.030743
  F           58.038982       53.230473       27.993576
  F           57.434918       51.654957       26.986463
  Li          57.803418       52.872594       26.801937
  P           56.346664        0.947300       14.452722
  F           55.426180        1.278435       14.245321
  F           57.272711        1.031243       14.820660
  F           56.636339        0.022850       14.204736
  F           55.947023        1.842627       14.649700
  F           56.055611        0.093540       14.021101
  F           56.946848        1.597363       14.918672
  Li          57.172346        0.389988       14.539360
  P           25.860859       27.803580       16.166344
  F           25.593637       26.867653       15.937023
  F           25.699846       28.783643       16.282707
  F           26.790312       28.022442       16.463384
  F           24.970267       27.466572       15.860738
  F           26.764177       27.419219       16.356600
  F           25.142606       28.493727       16.078459
  Li          26.368810       28.619103       16.443404
  P            1.462753        5.709280        3.450349
  F            1.642746        5.047079        2.722991
  F            1.648849        6.163292        4.321686
  F            0.684010        6.334974        3.404736
  F            2.202536        5.039418        3.386081
  F            0.675883        5.987516        2.899592
  F            2.107753        5.700488        4.214424
  Li           1.072160        6.435698        4.015687
  P           15.440511       45.004894       38.419664
  F           15.152998       45.568944       37.645622
  F           15.283958       44.421355       39.216509
  F           16.407720       44.859012       38.627608
  F           14.512365       45.220808       38.116264
  F           16.374070       45.220197       38.133263
  F           14.702367       44.603729       38.961997
  Li          15.976617       44.508971       39.102675
