(written by ASE)

512 atoms
1 atom types

0.0                   19.68  xlo xhi
0.0      17.043379946477753  ylo yhi
0.0      23.399999999999999  zlo zhi
    -9.8399999999999999                       0                       0  xy xz yz

Atoms # atomic

     1   1                       0                       0                    -0.5
     2   1                    1.23     0.71014082999999995                    -0.5
     3   1                   -1.23      2.1304224899999999                    -0.5
     4   1                       0      2.8405633199999998                    -0.5
     5   1                   -2.46      4.2608449899999998                    -0.5
     6   1                   -1.23      4.9709858200000001                    -0.5
     7   1     -3.6899999999999999      6.3912674799999998                    -0.5
     8   1                   -2.46      7.1014083100000001                    -0.5
     9   1     -4.9199999999999999      8.5216899700000006                    -0.5
    10   1     -3.6899999999999999      9.2318307999999991                    -0.5
    11   1     -6.1500000000000004             10.65211247                    -0.5
    12   1     -4.9199999999999999      11.362253300000001                    -0.5
    13   1     -7.3799999999999999             12.78253496                    -0.5
    14   1     -6.1500000000000004             13.49267579                    -0.5
    15   1     -8.6099999999999994             14.91295745                    -0.5
    16   1     -7.3799999999999999      15.623098280000001                    -0.5
    17   1                    2.46                       0                    -0.5
    18   1      3.6899999999999999     0.71014082999999995                    -0.5
    19   1                    1.23      2.1304224899999999                    -0.5
    20   1                    2.46      2.8405633199999998                    -0.5
    21   1                       0      4.2608449899999998                    -0.5
    22   1                    1.23      4.9709858200000001                    -0.5
    23   1                   -1.23      6.3912674799999998                    -0.5
    24   1                       0      7.1014083100000001                    -0.5
    25   1                   -2.46      8.5216899700000006                    -0.5
    26   1                   -1.23      9.2318307999999991                    -0.5
    27   1     -3.6899999999999999             10.65211247                    -0.5
    28   1                   -2.46      11.362253300000001                    -0.5
    29   1     -4.9199999999999999             12.78253496                    -0.5
    30   1     -3.6899999999999999             13.49267579                    -0.5
    31   1     -6.1500000000000004             14.91295745                    -0.5
    32   1     -4.9199999999999999      15.623098280000001                    -0.5
    33   1      4.9199999999999999                       0                    -0.5
    34   1      6.1500000000000004     0.71014082999999995                    -0.5
    35   1      3.6899999999999999      2.1304224899999999                    -0.5
    36   1      4.9199999999999999      2.8405633199999998                    -0.5
    37   1                    2.46      4.2608449899999998                    -0.5
    38   1      3.6899999999999999      4.9709858200000001                    -0.5
    39   1                    1.23      6.3912674799999998                    -0.5
    40   1                    2.46      7.1014083100000001                    -0.5
    41   1                       0      8.5216899700000006                    -0.5
    42   1                    1.23      9.2318307999999991                    -0.5
    43   1                   -1.23             10.65211247                    -0.5
    44   1                       0      11.362253300000001                    -0.5
    45   1                   -2.46             12.78253496                    -0.5
    46   1                   -1.23             13.49267579                    -0.5
    47   1     -3.6899999999999999             14.91295745                    -0.5
    48   1                   -2.46      15.623098280000001                    -0.5
    49   1      7.3799999999999999                       0                    -0.5
    50   1      8.6099999999999994     0.71014082999999995                    -0.5
    51   1      6.1500000000000004      2.1304224899999999                    -0.5
    52   1      7.3799999999999999      2.8405633199999998                    -0.5
    53   1      4.9199999999999999      4.2608449899999998                    -0.5
    54   1      6.1500000000000004      4.9709858200000001                    -0.5
    55   1      3.6899999999999999      6.3912674799999998                    -0.5
    56   1      4.9199999999999999      7.1014083100000001                    -0.5
    57   1                    2.46      8.5216899700000006                    -0.5
    58   1      3.6899999999999999      9.2318307999999991                    -0.5
    59   1                    1.23             10.65211247                    -0.5
    60   1                    2.46      11.362253300000001                    -0.5
    61   1                       0             12.78253496                    -0.5
    62   1                    1.23             13.49267579                    -0.5
    63   1                   -1.23             14.91295745                    -0.5
    64   1                       0      15.623098280000001                    -0.5
    65   1      9.8399999999999999                       0                    -0.5
    66   1                   11.07     0.71014082999999995                    -0.5
    67   1      8.6099999999999994      2.1304224899999999                    -0.5
    68   1      9.8399999999999999      2.8405633199999998                    -0.5
    69   1      7.3799999999999999      4.2608449899999998                    -0.5
    70   1      8.6099999999999994      4.9709858200000001                    -0.5
    71   1      6.1500000000000004      6.3912674799999998                    -0.5
    72   1      7.3799999999999999      7.1014083100000001                    -0.5
    73   1      4.9199999999999999      8.5216899700000006                    -0.5
    74   1      6.1500000000000004      9.2318307999999991                    -0.5
    75   1      3.6899999999999999             10.65211247                    -0.5
    76   1      4.9199999999999999      11.362253300000001                    -0.5
    77   1                    2.46             12.78253496                    -0.5
    78   1      3.6899999999999999             13.49267579                    -0.5
    79   1                    1.23             14.91295745                    -0.5
    80   1                    2.46      15.623098280000001                    -0.5
    81   1      12.300000000000001                       0                    -0.5
    82   1      13.529999999999999     0.71014082999999995                    -0.5
    83   1                   11.07      2.1304224899999999                    -0.5
    84   1      12.300000000000001      2.8405633199999998                    -0.5
    85   1      9.8399999999999999      4.2608449899999998                    -0.5
    86   1                   11.07      4.9709858200000001                    -0.5
    87   1      8.6099999999999994      6.3912674799999998                    -0.5
    88   1      9.8399999999999999      7.1014083100000001                    -0.5
    89   1      7.3799999999999999      8.5216899700000006                    -0.5
    90   1      8.6099999999999994      9.2318307999999991                    -0.5
    91   1      6.1500000000000004             10.65211247                    -0.5
    92   1      7.3799999999999999      11.362253300000001                    -0.5
    93   1      4.9199999999999999             12.78253496                    -0.5
    94   1      6.1500000000000004             13.49267579                    -0.5
    95   1      3.6899999999999999             14.91295745                    -0.5
    96   1      4.9199999999999999      15.623098280000001                    -0.5
    97   1                   14.76                       0                    -0.5
    98   1                   15.99     0.71014082999999995                    -0.5
    99   1      13.529999999999999      2.1304224899999999                    -0.5
   100   1                   14.76      2.8405633199999998                    -0.5
   101   1      12.300000000000001      4.2608449899999998                    -0.5
   102   1      13.529999999999999      4.9709858200000001                    -0.5
   103   1                   11.07      6.3912674799999998                    -0.5
   104   1      12.300000000000001      7.1014083100000001                    -0.5
   105   1      9.8399999999999999      8.5216899700000006                    -0.5
   106   1                   11.07      9.2318307999999991                    -0.5
   107   1      8.6099999999999994             10.65211247                    -0.5
   108   1      9.8399999999999999      11.362253300000001                    -0.5
   109   1      7.3799999999999999             12.78253496                    -0.5
   110   1      8.6099999999999994             13.49267579                    -0.5
   111   1      6.1500000000000004             14.91295745                    -0.5
   112   1      7.3799999999999999      15.623098280000001                    -0.5
   113   1      17.219999999999999                       0                    -0.5
   114   1      18.449999999999999     0.71014082999999995                    -0.5
   115   1                   15.99      2.1304224899999999                    -0.5
   116   1      17.219999999999999      2.8405633199999998                    -0.5
   117   1                   14.76      4.2608449899999998                    -0.5
   118   1                   15.99      4.9709858200000001                    -0.5
   119   1      13.529999999999999      6.3912674799999998                    -0.5
   120   1                   14.76      7.1014083100000001                    -0.5
   121   1      12.300000000000001      8.5216899700000006                    -0.5
   122   1      13.529999999999999      9.2318307999999991                    -0.5
   123   1                   11.07             10.65211247                    -0.5
   124   1      12.300000000000001      11.362253300000001                    -0.5
   125   1      9.8399999999999999             12.78253496                    -0.5
   126   1                   11.07             13.49267579                    -0.5
   127   1      8.6099999999999994             14.91295745                    -0.5
   128   1      9.8399999999999999      15.623098280000001                    -0.5
   129   1                       0                       0      2.8500000000000001
   130   1                    1.23     0.71014082999999995      2.8500000000000001
   131   1                   -1.23      2.1304224899999999      2.8500000000000001
   132   1                       0      2.8405633199999998      2.8500000000000001
   133   1                   -2.46      4.2608449899999998      2.8500000000000001
   134   1                   -1.23      4.9709858200000001      2.8500000000000001
   135   1     -3.6899999999999999      6.3912674799999998      2.8500000000000001
   136   1                   -2.46      7.1014083100000001      2.8500000000000001
   137   1     -4.9199999999999999      8.5216899700000006      2.8500000000000001
   138   1     -3.6899999999999999      9.2318307999999991      2.8500000000000001
   139   1     -6.1500000000000004             10.65211247      2.8500000000000001
   140   1     -4.9199999999999999      11.362253300000001      2.8500000000000001
   141   1     -7.3799999999999999             12.78253496      2.8500000000000001
   142   1     -6.1500000000000004             13.49267579      2.8500000000000001
   143   1     -8.6099999999999994             14.91295745      2.8500000000000001
   144   1     -7.3799999999999999      15.623098280000001      2.8500000000000001
   145   1                    2.46                       0      2.8500000000000001
   146   1      3.6899999999999999     0.71014082999999995      2.8500000000000001
   147   1                    1.23      2.1304224899999999      2.8500000000000001
   148   1                    2.46      2.8405633199999998      2.8500000000000001
   149   1                       0      4.2608449899999998      2.8500000000000001
   150   1                    1.23      4.9709858200000001      2.8500000000000001
   151   1                   -1.23      6.3912674799999998      2.8500000000000001
   152   1                       0      7.1014083100000001      2.8500000000000001
   153   1                   -2.46      8.5216899700000006      2.8500000000000001
   154   1                   -1.23      9.2318307999999991      2.8500000000000001
   155   1     -3.6899999999999999             10.65211247      2.8500000000000001
   156   1                   -2.46      11.362253300000001      2.8500000000000001
   157   1     -4.9199999999999999             12.78253496      2.8500000000000001
   158   1     -3.6899999999999999             13.49267579      2.8500000000000001
   159   1     -6.1500000000000004             14.91295745      2.8500000000000001
   160   1     -4.9199999999999999      15.623098280000001      2.8500000000000001
   161   1      4.9199999999999999                       0      2.8500000000000001
   162   1      6.1500000000000004     0.71014082999999995      2.8500000000000001
   163   1      3.6899999999999999      2.1304224899999999      2.8500000000000001
   164   1      4.9199999999999999      2.8405633199999998      2.8500000000000001
   165   1                    2.46      4.2608449899999998      2.8500000000000001
   166   1      3.6899999999999999      4.9709858200000001      2.8500000000000001
   167   1                    1.23      6.3912674799999998      2.8500000000000001
   168   1                    2.46      7.1014083100000001      2.8500000000000001
   169   1                       0      8.5216899700000006      2.8500000000000001
   170   1                    1.23      9.2318307999999991      2.8500000000000001
   171   1                   -1.23             10.65211247      2.8500000000000001
   172   1                       0      11.362253300000001      2.8500000000000001
   173   1                   -2.46             12.78253496      2.8500000000000001
   174   1                   -1.23             13.49267579      2.8500000000000001
   175   1     -3.6899999999999999             14.91295745      2.8500000000000001
   176   1                   -2.46      15.623098280000001      2.8500000000000001
   177   1      7.3799999999999999                       0      2.8500000000000001
   178   1      8.6099999999999994     0.71014082999999995      2.8500000000000001
   179   1      6.1500000000000004      2.1304224899999999      2.8500000000000001
   180   1      7.3799999999999999      2.8405633199999998      2.8500000000000001
   181   1      4.9199999999999999      4.2608449899999998      2.8500000000000001
   182   1      6.1500000000000004      4.9709858200000001      2.8500000000000001
   183   1      3.6899999999999999      6.3912674799999998      2.8500000000000001
   184   1      4.9199999999999999      7.1014083100000001      2.8500000000000001
   185   1                    2.46      8.5216899700000006      2.8500000000000001
   186   1      3.6899999999999999      9.2318307999999991      2.8500000000000001
   187   1                    1.23             10.65211247      2.8500000000000001
   188   1                    2.46      11.362253300000001      2.8500000000000001
   189   1                       0             12.78253496      2.8500000000000001
   190   1                    1.23             13.49267579      2.8500000000000001
   191   1                   -1.23             14.91295745      2.8500000000000001
   192   1                       0      15.623098280000001      2.8500000000000001
   193   1      9.8399999999999999                       0      2.8500000000000001
   194   1                   11.07     0.71014082999999995      2.8500000000000001
   195   1      8.6099999999999994      2.1304224899999999      2.8500000000000001
   196   1      9.8399999999999999      2.8405633199999998      2.8500000000000001
   197   1      7.3799999999999999      4.2608449899999998      2.8500000000000001
   198   1      8.6099999999999994      4.9709858200000001      2.8500000000000001
   199   1      6.1500000000000004      6.3912674799999998      2.8500000000000001
   200   1      7.3799999999999999      7.1014083100000001      2.8500000000000001
   201   1      4.9199999999999999      8.5216899700000006      2.8500000000000001
   202   1      6.1500000000000004      9.2318307999999991      2.8500000000000001
   203   1      3.6899999999999999             10.65211247      2.8500000000000001
   204   1      4.9199999999999999      11.362253300000001      2.8500000000000001
   205   1                    2.46             12.78253496      2.8500000000000001
   206   1      3.6899999999999999             13.49267579      2.8500000000000001
   207   1                    1.23             14.91295745      2.8500000000000001
   208   1                    2.46      15.623098280000001      2.8500000000000001
   209   1      12.300000000000001                       0      2.8500000000000001
   210   1      13.529999999999999     0.71014082999999995      2.8500000000000001
   211   1                   11.07      2.1304224899999999      2.8500000000000001
   212   1      12.300000000000001      2.8405633199999998      2.8500000000000001
   213   1      9.8399999999999999      4.2608449899999998      2.8500000000000001
   214   1                   11.07      4.9709858200000001      2.8500000000000001
   215   1      8.6099999999999994      6.3912674799999998      2.8500000000000001
   216   1      9.8399999999999999      7.1014083100000001      2.8500000000000001
   217   1      7.3799999999999999      8.5216899700000006      2.8500000000000001
   218   1      8.6099999999999994      9.2318307999999991      2.8500000000000001
   219   1      6.1500000000000004             10.65211247      2.8500000000000001
   220   1      7.3799999999999999      11.362253300000001      2.8500000000000001
   221   1      4.9199999999999999             12.78253496      2.8500000000000001
   222   1      6.1500000000000004             13.49267579      2.8500000000000001
   223   1      3.6899999999999999             14.91295745      2.8500000000000001
   224   1      4.9199999999999999      15.623098280000001      2.8500000000000001
   225   1                   14.76                       0      2.8500000000000001
   226   1                   15.99     0.71014082999999995      2.8500000000000001
   227   1      13.529999999999999      2.1304224899999999      2.8500000000000001
   228   1                   14.76      2.8405633199999998      2.8500000000000001
   229   1      12.300000000000001      4.2608449899999998      2.8500000000000001
   230   1      13.529999999999999      4.9709858200000001      2.8500000000000001
   231   1                   11.07      6.3912674799999998      2.8500000000000001
   232   1      12.300000000000001      7.1014083100000001      2.8500000000000001
   233   1      9.8399999999999999      8.5216899700000006      2.8500000000000001
   234   1                   11.07      9.2318307999999991      2.8500000000000001
   235   1      8.6099999999999994             10.65211247      2.8500000000000001
   236   1      9.8399999999999999      11.362253300000001      2.8500000000000001
   237   1      7.3799999999999999             12.78253496      2.8500000000000001
   238   1      8.6099999999999994             13.49267579      2.8500000000000001
   239   1      6.1500000000000004             14.91295745      2.8500000000000001
   240   1      7.3799999999999999      15.623098280000001      2.8500000000000001
   241   1      17.219999999999999                       0      2.8500000000000001
   242   1      18.449999999999999     0.71014082999999995      2.8500000000000001
   243   1                   15.99      2.1304224899999999      2.8500000000000001
   244   1      17.219999999999999      2.8405633199999998      2.8500000000000001
   245   1                   14.76      4.2608449899999998      2.8500000000000001
   246   1                   15.99      4.9709858200000001      2.8500000000000001
   247   1      13.529999999999999      6.3912674799999998      2.8500000000000001
   248   1                   14.76      7.1014083100000001      2.8500000000000001
   249   1      12.300000000000001      8.5216899700000006      2.8500000000000001
   250   1      13.529999999999999      9.2318307999999991      2.8500000000000001
   251   1                   11.07             10.65211247      2.8500000000000001
   252   1      12.300000000000001      11.362253300000001      2.8500000000000001
   253   1      9.8399999999999999             12.78253496      2.8500000000000001
   254   1                   11.07             13.49267579      2.8500000000000001
   255   1      8.6099999999999994             14.91295745      2.8500000000000001
   256   1      9.8399999999999999      15.623098280000001      2.8500000000000001
   257   1                       0                       0      6.2000000000000002
   258   1                    1.23     0.71014082999999995      6.2000000000000002
   259   1                   -1.23      2.1304224899999999      6.2000000000000002
   260   1                       0      2.8405633199999998      6.2000000000000002
   261   1                   -2.46      4.2608449899999998      6.2000000000000002
   262   1                   -1.23      4.9709858200000001      6.2000000000000002
   263   1     -3.6899999999999999      6.3912674799999998      6.2000000000000002
   264   1                   -2.46      7.1014083100000001      6.2000000000000002
   265   1     -4.9199999999999999      8.5216899700000006      6.2000000000000002
   266   1     -3.6899999999999999      9.2318307999999991      6.2000000000000002
   267   1     -6.1500000000000004             10.65211247      6.2000000000000002
   268   1     -4.9199999999999999      11.362253300000001      6.2000000000000002
   269   1     -7.3799999999999999             12.78253496      6.2000000000000002
   270   1     -6.1500000000000004             13.49267579      6.2000000000000002
   271   1     -8.6099999999999994             14.91295745      6.2000000000000002
   272   1     -7.3799999999999999      15.623098280000001      6.2000000000000002
   273   1                    2.46                       0      6.2000000000000002
   274   1      3.6899999999999999     0.71014082999999995      6.2000000000000002
   275   1                    1.23      2.1304224899999999      6.2000000000000002
   276   1                    2.46      2.8405633199999998      6.2000000000000002
   277   1                       0      4.2608449899999998      6.2000000000000002
   278   1                    1.23      4.9709858200000001      6.2000000000000002
   279   1                   -1.23      6.3912674799999998      6.2000000000000002
   280   1                       0      7.1014083100000001      6.2000000000000002
   281   1                   -2.46      8.5216899700000006      6.2000000000000002
   282   1                   -1.23      9.2318307999999991      6.2000000000000002
   283   1     -3.6899999999999999             10.65211247      6.2000000000000002
   284   1                   -2.46      11.362253300000001      6.2000000000000002
   285   1     -4.9199999999999999             12.78253496      6.2000000000000002
   286   1     -3.6899999999999999             13.49267579      6.2000000000000002
   287   1     -6.1500000000000004             14.91295745      6.2000000000000002
   288   1     -4.9199999999999999      15.623098280000001      6.2000000000000002
   289   1      4.9199999999999999                       0      6.2000000000000002
   290   1      6.1500000000000004     0.71014082999999995      6.2000000000000002
   291   1      3.6899999999999999      2.1304224899999999      6.2000000000000002
   292   1      4.9199999999999999      2.8405633199999998      6.2000000000000002
   293   1                    2.46      4.2608449899999998      6.2000000000000002
   294   1      3.6899999999999999      4.9709858200000001      6.2000000000000002
   295   1                    1.23      6.3912674799999998      6.2000000000000002
   296   1                    2.46      7.1014083100000001      6.2000000000000002
   297   1                       0      8.5216899700000006      6.2000000000000002
   298   1                    1.23      9.2318307999999991      6.2000000000000002
   299   1                   -1.23             10.65211247      6.2000000000000002
   300   1                       0      11.362253300000001      6.2000000000000002
   301   1                   -2.46             12.78253496      6.2000000000000002
   302   1                   -1.23             13.49267579      6.2000000000000002
   303   1     -3.6899999999999999             14.91295745      6.2000000000000002
   304   1                   -2.46      15.623098280000001      6.2000000000000002
   305   1      7.3799999999999999                       0      6.2000000000000002
   306   1      8.6099999999999994     0.71014082999999995      6.2000000000000002
   307   1      6.1500000000000004      2.1304224899999999      6.2000000000000002
   308   1      7.3799999999999999      2.8405633199999998      6.2000000000000002
   309   1      4.9199999999999999      4.2608449899999998      6.2000000000000002
   310   1      6.1500000000000004      4.9709858200000001      6.2000000000000002
   311   1      3.6899999999999999      6.3912674799999998      6.2000000000000002
   312   1      4.9199999999999999      7.1014083100000001      6.2000000000000002
   313   1                    2.46      8.5216899700000006      6.2000000000000002
   314   1      3.6899999999999999      9.2318307999999991      6.2000000000000002
   315   1                    1.23             10.65211247      6.2000000000000002
   316   1                    2.46      11.362253300000001      6.2000000000000002
   317   1                       0             12.78253496      6.2000000000000002
   318   1                    1.23             13.49267579      6.2000000000000002
   319   1                   -1.23             14.91295745      6.2000000000000002
   320   1                       0      15.623098280000001      6.2000000000000002
   321   1      9.8399999999999999                       0      6.2000000000000002
   322   1                   11.07     0.71014082999999995      6.2000000000000002
   323   1      8.6099999999999994      2.1304224899999999      6.2000000000000002
   324   1      9.8399999999999999      2.8405633199999998      6.2000000000000002
   325   1      7.3799999999999999      4.2608449899999998      6.2000000000000002
   326   1      8.6099999999999994      4.9709858200000001      6.2000000000000002
   327   1      6.1500000000000004      6.3912674799999998      6.2000000000000002
   328   1      7.3799999999999999      7.1014083100000001      6.2000000000000002
   329   1      4.9199999999999999      8.5216899700000006      6.2000000000000002
   330   1      6.1500000000000004      9.2318307999999991      6.2000000000000002
   331   1      3.6899999999999999             10.65211247      6.2000000000000002
   332   1      4.9199999999999999      11.362253300000001      6.2000000000000002
   333   1                    2.46             12.78253496      6.2000000000000002
   334   1      3.6899999999999999             13.49267579      6.2000000000000002
   335   1                    1.23             14.91295745      6.2000000000000002
   336   1                    2.46      15.623098280000001      6.2000000000000002
   337   1      12.300000000000001                       0      6.2000000000000002
   338   1      13.529999999999999     0.71014082999999995      6.2000000000000002
   339   1                   11.07      2.1304224899999999      6.2000000000000002
   340   1      12.300000000000001      2.8405633199999998      6.2000000000000002
   341   1      9.8399999999999999      4.2608449899999998      6.2000000000000002
   342   1                   11.07      4.9709858200000001      6.2000000000000002
   343   1      8.6099999999999994      6.3912674799999998      6.2000000000000002
   344   1      9.8399999999999999      7.1014083100000001      6.2000000000000002
   345   1      7.3799999999999999      8.5216899700000006      6.2000000000000002
   346   1      8.6099999999999994      9.2318307999999991      6.2000000000000002
   347   1      6.1500000000000004             10.65211247      6.2000000000000002
   348   1      7.3799999999999999      11.362253300000001      6.2000000000000002
   349   1      4.9199999999999999             12.78253496      6.2000000000000002
   350   1      6.1500000000000004             13.49267579      6.2000000000000002
   351   1      3.6899999999999999             14.91295745      6.2000000000000002
   352   1      4.9199999999999999      15.623098280000001      6.2000000000000002
   353   1                   14.76                       0      6.2000000000000002
   354   1                   15.99     0.71014082999999995      6.2000000000000002
   355   1      13.529999999999999      2.1304224899999999      6.2000000000000002
   356   1                   14.76      2.8405633199999998      6.2000000000000002
   357   1      12.300000000000001      4.2608449899999998      6.2000000000000002
   358   1      13.529999999999999      4.9709858200000001      6.2000000000000002
   359   1                   11.07      6.3912674799999998      6.2000000000000002
   360   1      12.300000000000001      7.1014083100000001      6.2000000000000002
   361   1      9.8399999999999999      8.5216899700000006      6.2000000000000002
   362   1                   11.07      9.2318307999999991      6.2000000000000002
   363   1      8.6099999999999994             10.65211247      6.2000000000000002
   364   1      9.8399999999999999      11.362253300000001      6.2000000000000002
   365   1      7.3799999999999999             12.78253496      6.2000000000000002
   366   1      8.6099999999999994             13.49267579      6.2000000000000002
   367   1      6.1500000000000004             14.91295745      6.2000000000000002
   368   1      7.3799999999999999      15.623098280000001      6.2000000000000002
   369   1      17.219999999999999                       0      6.2000000000000002
   370   1      18.449999999999999     0.71014082999999995      6.2000000000000002
   371   1                   15.99      2.1304224899999999      6.2000000000000002
   372   1      17.219999999999999      2.8405633199999998      6.2000000000000002
   373   1                   14.76      4.2608449899999998      6.2000000000000002
   374   1                   15.99      4.9709858200000001      6.2000000000000002
   375   1      13.529999999999999      6.3912674799999998      6.2000000000000002
   376   1                   14.76      7.1014083100000001      6.2000000000000002
   377   1      12.300000000000001      8.5216899700000006      6.2000000000000002
   378   1      13.529999999999999      9.2318307999999991      6.2000000000000002
   379   1                   11.07             10.65211247      6.2000000000000002
   380   1      12.300000000000001      11.362253300000001      6.2000000000000002
   381   1      9.8399999999999999             12.78253496      6.2000000000000002
   382   1                   11.07             13.49267579      6.2000000000000002
   383   1      8.6099999999999994             14.91295745      6.2000000000000002
   384   1      9.8399999999999999      15.623098280000001      6.2000000000000002
   385   1                       0                       0      9.5500000000000007
   386   1                    1.23     0.71014082999999995      9.5500000000000007
   387   1                   -1.23      2.1304224899999999      9.5500000000000007
   388   1                       0      2.8405633199999998      9.5500000000000007
   389   1                   -2.46      4.2608449899999998      9.5500000000000007
   390   1                   -1.23      4.9709858200000001      9.5500000000000007
   391   1     -3.6899999999999999      6.3912674799999998      9.5500000000000007
   392   1                   -2.46      7.1014083100000001      9.5500000000000007
   393   1     -4.9199999999999999      8.5216899700000006      9.5500000000000007
   394   1     -3.6899999999999999      9.2318307999999991      9.5500000000000007
   395   1     -6.1500000000000004             10.65211247      9.5500000000000007
   396   1     -4.9199999999999999      11.362253300000001      9.5500000000000007
   397   1     -7.3799999999999999             12.78253496      9.5500000000000007
   398   1     -6.1500000000000004             13.49267579      9.5500000000000007
   399   1     -8.6099999999999994             14.91295745      9.5500000000000007
   400   1     -7.3799999999999999      15.623098280000001      9.5500000000000007
   401   1                    2.46                       0      9.5500000000000007
   402   1      3.6899999999999999     0.71014082999999995      9.5500000000000007
   403   1                    1.23      2.1304224899999999      9.5500000000000007
   404   1                    2.46      2.8405633199999998      9.5500000000000007
   405   1                       0      4.2608449899999998      9.5500000000000007
   406   1                    1.23      4.9709858200000001      9.5500000000000007
   407   1                   -1.23      6.3912674799999998      9.5500000000000007
   408   1                       0      7.1014083100000001      9.5500000000000007
   409   1                   -2.46      8.5216899700000006      9.5500000000000007
   410   1                   -1.23      9.2318307999999991      9.5500000000000007
   411   1     -3.6899999999999999             10.65211247      9.5500000000000007
   412   1                   -2.46      11.362253300000001      9.5500000000000007
   413   1     -4.9199999999999999             12.78253496      9.5500000000000007
   414   1     -3.6899999999999999             13.49267579      9.5500000000000007
   415   1     -6.1500000000000004             14.91295745      9.5500000000000007
   416   1     -4.9199999999999999      15.623098280000001      9.5500000000000007
   417   1      4.9199999999999999                       0      9.5500000000000007
   418   1      6.1500000000000004     0.71014082999999995      9.5500000000000007
   419   1      3.6899999999999999      2.1304224899999999      9.5500000000000007
   420   1      4.9199999999999999      2.8405633199999998      9.5500000000000007
   421   1                    2.46      4.2608449899999998      9.5500000000000007
   422   1      3.6899999999999999      4.9709858200000001      9.5500000000000007
   423   1                    1.23      6.3912674799999998      9.5500000000000007
   424   1                    2.46      7.1014083100000001      9.5500000000000007
   425   1                       0      8.5216899700000006      9.5500000000000007
   426   1                    1.23      9.2318307999999991      9.5500000000000007
   427   1                   -1.23             10.65211247      9.5500000000000007
   428   1                       0      11.362253300000001      9.5500000000000007
   429   1                   -2.46             12.78253496      9.5500000000000007
   430   1                   -1.23             13.49267579      9.5500000000000007
   431   1     -3.6899999999999999             14.91295745      9.5500000000000007
   432   1                   -2.46      15.623098280000001      9.5500000000000007
   433   1      7.3799999999999999                       0      9.5500000000000007
   434   1      8.6099999999999994     0.71014082999999995      9.5500000000000007
   435   1      6.1500000000000004      2.1304224899999999      9.5500000000000007
   436   1      7.3799999999999999      2.8405633199999998      9.5500000000000007
   437   1      4.9199999999999999      4.2608449899999998      9.5500000000000007
   438   1      6.1500000000000004      4.9709858200000001      9.5500000000000007
   439   1      3.6899999999999999      6.3912674799999998      9.5500000000000007
   440   1      4.9199999999999999      7.1014083100000001      9.5500000000000007
   441   1                    2.46      8.5216899700000006      9.5500000000000007
   442   1      3.6899999999999999      9.2318307999999991      9.5500000000000007
   443   1                    1.23             10.65211247      9.5500000000000007
   444   1                    2.46      11.362253300000001      9.5500000000000007
   445   1                       0             12.78253496      9.5500000000000007
   446   1                    1.23             13.49267579      9.5500000000000007
   447   1                   -1.23             14.91295745      9.5500000000000007
   448   1                       0      15.623098280000001      9.5500000000000007
   449   1      9.8399999999999999                       0      9.5500000000000007
   450   1                   11.07     0.71014082999999995      9.5500000000000007
   451   1      8.6099999999999994      2.1304224899999999      9.5500000000000007
   452   1      9.8399999999999999      2.8405633199999998      9.5500000000000007
   453   1      7.3799999999999999      4.2608449899999998      9.5500000000000007
   454   1      8.6099999999999994      4.9709858200000001      9.5500000000000007
   455   1      6.1500000000000004      6.3912674799999998      9.5500000000000007
   456   1      7.3799999999999999      7.1014083100000001      9.5500000000000007
   457   1      4.9199999999999999      8.5216899700000006      9.5500000000000007
   458   1      6.1500000000000004      9.2318307999999991      9.5500000000000007
   459   1      3.6899999999999999             10.65211247      9.5500000000000007
   460   1      4.9199999999999999      11.362253300000001      9.5500000000000007
   461   1                    2.46             12.78253496      9.5500000000000007
   462   1      3.6899999999999999             13.49267579      9.5500000000000007
   463   1                    1.23             14.91295745      9.5500000000000007
   464   1                    2.46      15.623098280000001      9.5500000000000007
   465   1      12.300000000000001                       0      9.5500000000000007
   466   1      13.529999999999999     0.71014082999999995      9.5500000000000007
   467   1                   11.07      2.1304224899999999      9.5500000000000007
   468   1      12.300000000000001      2.8405633199999998      9.5500000000000007
   469   1      9.8399999999999999      4.2608449899999998      9.5500000000000007
   470   1                   11.07      4.9709858200000001      9.5500000000000007
   471   1      8.6099999999999994      6.3912674799999998      9.5500000000000007
   472   1      9.8399999999999999      7.1014083100000001      9.5500000000000007
   473   1      7.3799999999999999      8.5216899700000006      9.5500000000000007
   474   1      8.6099999999999994      9.2318307999999991      9.5500000000000007
   475   1      6.1500000000000004             10.65211247      9.5500000000000007
   476   1      7.3799999999999999      11.362253300000001      9.5500000000000007
   477   1      4.9199999999999999             12.78253496      9.5500000000000007
   478   1      6.1500000000000004             13.49267579      9.5500000000000007
   479   1      3.6899999999999999             14.91295745      9.5500000000000007
   480   1      4.9199999999999999      15.623098280000001      9.5500000000000007
   481   1                   14.76                       0      9.5500000000000007
   482   1                   15.99     0.71014082999999995      9.5500000000000007
   483   1      13.529999999999999      2.1304224899999999      9.5500000000000007
   484   1                   14.76      2.8405633199999998      9.5500000000000007
   485   1      12.300000000000001      4.2608449899999998      9.5500000000000007
   486   1      13.529999999999999      4.9709858200000001      9.5500000000000007
   487   1                   11.07      6.3912674799999998      9.5500000000000007
   488   1      12.300000000000001      7.1014083100000001      9.5500000000000007
   489   1      9.8399999999999999      8.5216899700000006      9.5500000000000007
   490   1                   11.07      9.2318307999999991      9.5500000000000007
   491   1      8.6099999999999994             10.65211247      9.5500000000000007
   492   1      9.8399999999999999      11.362253300000001      9.5500000000000007
   493   1      7.3799999999999999             12.78253496      9.5500000000000007
   494   1      8.6099999999999994             13.49267579      9.5500000000000007
   495   1      6.1500000000000004             14.91295745      9.5500000000000007
   496   1      7.3799999999999999      15.623098280000001      9.5500000000000007
   497   1      17.219999999999999                       0      9.5500000000000007
   498   1      18.449999999999999     0.71014082999999995      9.5500000000000007
   499   1                   15.99      2.1304224899999999      9.5500000000000007
   500   1      17.219999999999999      2.8405633199999998      9.5500000000000007
   501   1                   14.76      4.2608449899999998      9.5500000000000007
   502   1                   15.99      4.9709858200000001      9.5500000000000007
   503   1      13.529999999999999      6.3912674799999998      9.5500000000000007
   504   1                   14.76      7.1014083100000001      9.5500000000000007
   505   1      12.300000000000001      8.5216899700000006      9.5500000000000007
   506   1      13.529999999999999      9.2318307999999991      9.5500000000000007
   507   1                   11.07             10.65211247      9.5500000000000007
   508   1      12.300000000000001      11.362253300000001      9.5500000000000007
   509   1      9.8399999999999999             12.78253496      9.5500000000000007
   510   1                   11.07             13.49267579      9.5500000000000007
   511   1      8.6099999999999994             14.91295745      9.5500000000000007
   512   1      9.8399999999999999      15.623098280000001      9.5500000000000007
