512
Lattice="19.68 0.0 0.0 -9.84 17.043379946477753 0.0 0.0 -0.0 23.4" Properties=species:S:1:pos:R:3 pbc="T T T"
C        0.00000000       0.00000000      -0.50000000
C        1.23000000       0.71014083      -0.50000000
C       -1.23000000       2.13042249      -0.50000000
C        0.00000000       2.84056332      -0.50000000
C       -2.46000000       4.26084499      -0.50000000
C       -1.23000000       4.97098582      -0.50000000
C       -3.69000000       6.39126748      -0.50000000
C       -2.46000000       7.10140831      -0.50000000
C       -4.92000000       8.52168997      -0.50000000
C       -3.69000000       9.23183080      -0.50000000
C       -6.15000000      10.65211247      -0.50000000
C       -4.92000000      11.36225330      -0.50000000
C       -7.38000000      12.78253496      -0.50000000
C       -6.15000000      13.49267579      -0.50000000
C       -8.61000000      14.91295745      -0.50000000
C       -7.38000000      15.62309828      -0.50000000
C        2.46000000       0.00000000      -0.50000000
C        3.69000000       0.71014083      -0.50000000
C        1.23000000       2.13042249      -0.50000000
C        2.46000000       2.84056332      -0.50000000
C        0.00000000       4.26084499      -0.50000000
C        1.23000000       4.97098582      -0.50000000
C       -1.23000000       6.39126748      -0.50000000
C        0.00000000       7.10140831      -0.50000000
C       -2.46000000       8.52168997      -0.50000000
C       -1.23000000       9.23183080      -0.50000000
C       -3.69000000      10.65211247      -0.50000000
C       -2.46000000      11.36225330      -0.50000000
C       -4.92000000      12.78253496      -0.50000000
C       -3.69000000      13.49267579      -0.50000000
C       -6.15000000      14.91295745      -0.50000000
C       -4.92000000      15.62309828      -0.50000000
C        4.92000000       0.00000000      -0.50000000
C        6.15000000       0.71014083      -0.50000000
C        3.69000000       2.13042249      -0.50000000
C        4.92000000       2.84056332      -0.50000000
C        2.46000000       4.26084499      -0.50000000
C        3.69000000       4.97098582      -0.50000000
C        1.23000000       6.39126748      -0.50000000
C        2.46000000       7.10140831      -0.50000000
C        0.00000000       8.52168997      -0.50000000
C        1.23000000       9.23183080      -0.50000000
C       -1.23000000      10.65211247      -0.50000000
C       -0.00000000      11.36225330      -0.50000000
C       -2.46000000      12.78253496      -0.50000000
C       -1.23000000      13.49267579      -0.50000000
C       -3.69000000      14.91295745      -0.50000000
C       -2.46000000      15.62309828      -0.50000000
C        7.38000000       0.00000000      -0.50000000
C        8.61000000       0.71014083      -0.50000000
C        6.15000000       2.13042249      -0.50000000
C        7.38000000       2.84056332      -0.50000000
C        4.92000000       4.26084499      -0.50000000
C        6.15000000       4.97098582      -0.50000000
C        3.69000000       6.39126748      -0.50000000
C        4.92000000       7.10140831      -0.50000000
C        2.46000000       8.52168997      -0.50000000
C        3.69000000       9.23183080      -0.50000000
C        1.23000000      10.65211247      -0.50000000
C        2.46000000      11.36225330      -0.50000000
C        0.00000000      12.78253496      -0.50000000
C        1.23000000      13.49267579      -0.50000000
C       -1.23000000      14.91295745      -0.50000000
C        0.00000000      15.62309828      -0.50000000
C        9.84000000       0.00000000      -0.50000000
C       11.07000000       0.71014083      -0.50000000
C        8.61000000       2.13042249      -0.50000000
C        9.84000000       2.84056332      -0.50000000
C        7.38000000       4.26084499      -0.50000000
C        8.61000000       4.97098582      -0.50000000
C        6.15000000       6.39126748      -0.50000000
C        7.38000000       7.10140831      -0.50000000
C        4.92000000       8.52168997      -0.50000000
C        6.15000000       9.23183080      -0.50000000
C        3.69000000      10.65211247      -0.50000000
C        4.92000000      11.36225330      -0.50000000
C        2.46000000      12.78253496      -0.50000000
C        3.69000000      13.49267579      -0.50000000
C        1.23000000      14.91295745      -0.50000000
C        2.46000000      15.62309828      -0.50000000
C       12.30000000       0.00000000      -0.50000000
C       13.53000000       0.71014083      -0.50000000
C       11.07000000       2.13042249      -0.50000000
C       12.30000000       2.84056332      -0.50000000
C        9.84000000       4.26084499      -0.50000000
C       11.07000000       4.97098582      -0.50000000
C        8.61000000       6.39126748      -0.50000000
C        9.84000000       7.10140831      -0.50000000
C        7.38000000       8.52168997      -0.50000000
C        8.61000000       9.23183080      -0.50000000
C        6.15000000      10.65211247      -0.50000000
C        7.38000000      11.36225330      -0.50000000
C        4.92000000      12.78253496      -0.50000000
C        6.15000000      13.49267579      -0.50000000
C        3.69000000      14.91295745      -0.50000000
C        4.92000000      15.62309828      -0.50000000
C       14.76000000       0.00000000      -0.50000000
C       15.99000000       0.71014083      -0.50000000
C       13.53000000       2.13042249      -0.50000000
C       14.76000000       2.84056332      -0.50000000
C       12.30000000       4.26084499      -0.50000000
C       13.53000000       4.97098582      -0.50000000
C       11.07000000       6.39126748      -0.50000000
C       12.30000000       7.10140831      -0.50000000
C        9.84000000       8.52168997      -0.50000000
C       11.07000000       9.23183080      -0.50000000
C        8.61000000      10.65211247      -0.50000000
C        9.84000000      11.36225330      -0.50000000
C        7.38000000      12.78253496      -0.50000000
C        8.61000000      13.49267579      -0.50000000
C        6.15000000      14.91295745      -0.50000000
C        7.38000000      15.62309828      -0.50000000
C       17.22000000       0.00000000      -0.50000000
C       18.45000000       0.71014083      -0.50000000
C       15.99000000       2.13042249      -0.50000000
C       17.22000000       2.84056332      -0.50000000
C       14.76000000       4.26084499      -0.50000000
C       15.99000000       4.97098582      -0.50000000
C       13.53000000       6.39126748      -0.50000000
C       14.76000000       7.10140831      -0.50000000
C       12.30000000       8.52168997      -0.50000000
C       13.53000000       9.23183080      -0.50000000
C       11.07000000      10.65211247      -0.50000000
C       12.30000000      11.36225330      -0.50000000
C        9.84000000      12.78253496      -0.50000000
C       11.07000000      13.49267579      -0.50000000
C        8.61000000      14.91295745      -0.50000000
C        9.84000000      15.62309828      -0.50000000
C        0.00000000       0.00000000       2.85000000
C        1.23000000       0.71014083       2.85000000
C       -1.23000000       2.13042249       2.85000000
C        0.00000000       2.84056332       2.85000000
C       -2.46000000       4.26084499       2.85000000
C       -1.23000000       4.97098582       2.85000000
C       -3.69000000       6.39126748       2.85000000
C       -2.46000000       7.10140831       2.85000000
C       -4.92000000       8.52168997       2.85000000
C       -3.69000000       9.23183080       2.85000000
C       -6.15000000      10.65211247       2.85000000
C       -4.92000000      11.36225330       2.85000000
C       -7.38000000      12.78253496       2.85000000
C       -6.15000000      13.49267579       2.85000000
C       -8.61000000      14.91295745       2.85000000
C       -7.38000000      15.62309828       2.85000000
C        2.46000000       0.00000000       2.85000000
C        3.69000000       0.71014083       2.85000000
C        1.23000000       2.13042249       2.85000000
C        2.46000000       2.84056332       2.85000000
C        0.00000000       4.26084499       2.85000000
C        1.23000000       4.97098582       2.85000000
C       -1.23000000       6.39126748       2.85000000
C        0.00000000       7.10140831       2.85000000
C       -2.46000000       8.52168997       2.85000000
C       -1.23000000       9.23183080       2.85000000
C       -3.69000000      10.65211247       2.85000000
C       -2.46000000      11.36225330       2.85000000
C       -4.92000000      12.78253496       2.85000000
C       -3.69000000      13.49267579       2.85000000
C       -6.15000000      14.91295745       2.85000000
C       -4.92000000      15.62309828       2.85000000
C        4.92000000       0.00000000       2.85000000
C        6.15000000       0.71014083       2.85000000
C        3.69000000       2.13042249       2.85000000
C        4.92000000       2.84056332       2.85000000
C        2.46000000       4.26084499       2.85000000
C        3.69000000       4.97098582       2.85000000
C        1.23000000       6.39126748       2.85000000
C        2.46000000       7.10140831       2.85000000
C        0.00000000       8.52168997       2.85000000
C        1.23000000       9.23183080       2.85000000
C       -1.23000000      10.65211247       2.85000000
C       -0.00000000      11.36225330       2.85000000
C       -2.46000000      12.78253496       2.85000000
C       -1.23000000      13.49267579       2.85000000
C       -3.69000000      14.91295745       2.85000000
C       -2.46000000      15.62309828       2.85000000
C        7.38000000       0.00000000       2.85000000
C        8.61000000       0.71014083       2.85000000
C        6.15000000       2.13042249       2.85000000
C        7.38000000       2.84056332       2.85000000
C        4.92000000       4.26084499       2.85000000
C        6.15000000       4.97098582       2.85000000
C        3.69000000       6.39126748       2.85000000
C        4.92000000       7.10140831       2.85000000
C        2.46000000       8.52168997       2.85000000
C        3.69000000       9.23183080       2.85000000
C        1.23000000      10.65211247       2.85000000
C        2.46000000      11.36225330       2.85000000
C        0.00000000      12.78253496       2.85000000
C        1.23000000      13.49267579       2.85000000
C       -1.23000000      14.91295745       2.85000000
C        0.00000000      15.62309828       2.85000000
C        9.84000000       0.00000000       2.85000000
C       11.07000000       0.71014083       2.85000000
C        8.61000000       2.13042249       2.85000000
C        9.84000000       2.84056332       2.85000000
C        7.38000000       4.26084499       2.85000000
C        8.61000000       4.97098582       2.85000000
C        6.15000000       6.39126748       2.85000000
C        7.38000000       7.10140831       2.85000000
C        4.92000000       8.52168997       2.85000000
C        6.15000000       9.23183080       2.85000000
C        3.69000000      10.65211247       2.85000000
C        4.92000000      11.36225330       2.85000000
C        2.46000000      12.78253496       2.85000000
C        3.69000000      13.49267579       2.85000000
C        1.23000000      14.91295745       2.85000000
C        2.46000000      15.62309828       2.85000000
C       12.30000000       0.00000000       2.85000000
C       13.53000000       0.71014083       2.85000000
C       11.07000000       2.13042249       2.85000000
C       12.30000000       2.84056332       2.85000000
C        9.84000000       4.26084499       2.85000000
C       11.07000000       4.97098582       2.85000000
C        8.61000000       6.39126748       2.85000000
C        9.84000000       7.10140831       2.85000000
C        7.38000000       8.52168997       2.85000000
C        8.61000000       9.23183080       2.85000000
C        6.15000000      10.65211247       2.85000000
C        7.38000000      11.36225330       2.85000000
C        4.92000000      12.78253496       2.85000000
C        6.15000000      13.49267579       2.85000000
C        3.69000000      14.91295745       2.85000000
C        4.92000000      15.62309828       2.85000000
C       14.76000000       0.00000000       2.85000000
C       15.99000000       0.71014083       2.85000000
C       13.53000000       2.13042249       2.85000000
C       14.76000000       2.84056332       2.85000000
C       12.30000000       4.26084499       2.85000000
C       13.53000000       4.97098582       2.85000000
C       11.07000000       6.39126748       2.85000000
C       12.30000000       7.10140831       2.85000000
C        9.84000000       8.52168997       2.85000000
C       11.07000000       9.23183080       2.85000000
C        8.61000000      10.65211247       2.85000000
C        9.84000000      11.36225330       2.85000000
C        7.38000000      12.78253496       2.85000000
C        8.61000000      13.49267579       2.85000000
C        6.15000000      14.91295745       2.85000000
C        7.38000000      15.62309828       2.85000000
C       17.22000000       0.00000000       2.85000000
C       18.45000000       0.71014083       2.85000000
C       15.99000000       2.13042249       2.85000000
C       17.22000000       2.84056332       2.85000000
C       14.76000000       4.26084499       2.85000000
C       15.99000000       4.97098582       2.85000000
C       13.53000000       6.39126748       2.85000000
C       14.76000000       7.10140831       2.85000000
C       12.30000000       8.52168997       2.85000000
C       13.53000000       9.23183080       2.85000000
C       11.07000000      10.65211247       2.85000000
C       12.30000000      11.36225330       2.85000000
C        9.84000000      12.78253496       2.85000000
C       11.07000000      13.49267579       2.85000000
C        8.61000000      14.91295745       2.85000000
C        9.84000000      15.62309828       2.85000000
C        0.00000000       0.00000000       6.20000000
C        1.23000000       0.71014083       6.20000000
C       -1.23000000       2.13042249       6.20000000
C        0.00000000       2.84056332       6.20000000
C       -2.46000000       4.26084499       6.20000000
C       -1.23000000       4.97098582       6.20000000
C       -3.69000000       6.39126748       6.20000000
C       -2.46000000       7.10140831       6.20000000
C       -4.92000000       8.52168997       6.20000000
C       -3.69000000       9.23183080       6.20000000
C       -6.15000000      10.65211247       6.20000000
C       -4.92000000      11.36225330       6.20000000
C       -7.38000000      12.78253496       6.20000000
C       -6.15000000      13.49267579       6.20000000
C       -8.61000000      14.91295745       6.20000000
C       -7.38000000      15.62309828       6.20000000
C        2.46000000       0.00000000       6.20000000
C        3.69000000       0.71014083       6.20000000
C        1.23000000       2.13042249       6.20000000
C        2.46000000       2.84056332       6.20000000
C        0.00000000       4.26084499       6.20000000
C        1.23000000       4.97098582       6.20000000
C       -1.23000000       6.39126748       6.20000000
C        0.00000000       7.10140831       6.20000000
C       -2.46000000       8.52168997       6.20000000
C       -1.23000000       9.23183080       6.20000000
C       -3.69000000      10.65211247       6.20000000
C       -2.46000000      11.36225330       6.20000000
C       -4.92000000      12.78253496       6.20000000
C       -3.69000000      13.49267579       6.20000000
C       -6.15000000      14.91295745       6.20000000
C       -4.92000000      15.62309828       6.20000000
C        4.92000000       0.00000000       6.20000000
C        6.15000000       0.71014083       6.20000000
C        3.69000000       2.13042249       6.20000000
C        4.92000000       2.84056332       6.20000000
C        2.46000000       4.26084499       6.20000000
C        3.69000000       4.97098582       6.20000000
C        1.23000000       6.39126748       6.20000000
C        2.46000000       7.10140831       6.20000000
C        0.00000000       8.52168997       6.20000000
C        1.23000000       9.23183080       6.20000000
C       -1.23000000      10.65211247       6.20000000
C       -0.00000000      11.36225330       6.20000000
C       -2.46000000      12.78253496       6.20000000
C       -1.23000000      13.49267579       6.20000000
C       -3.69000000      14.91295745       6.20000000
C       -2.46000000      15.62309828       6.20000000
C        7.38000000       0.00000000       6.20000000
C        8.61000000       0.71014083       6.20000000
C        6.15000000       2.13042249       6.20000000
C        7.38000000       2.84056332       6.20000000
C        4.92000000       4.26084499       6.20000000
C        6.15000000       4.97098582       6.20000000
C        3.69000000       6.39126748       6.20000000
C        4.92000000       7.10140831       6.20000000
C        2.46000000       8.52168997       6.20000000
C        3.69000000       9.23183080       6.20000000
C        1.23000000      10.65211247       6.20000000
C        2.46000000      11.36225330       6.20000000
C        0.00000000      12.78253496       6.20000000
C        1.23000000      13.49267579       6.20000000
C       -1.23000000      14.91295745       6.20000000
C        0.00000000      15.62309828       6.20000000
C        9.84000000       0.00000000       6.20000000
C       11.07000000       0.71014083       6.20000000
C        8.61000000       2.13042249       6.20000000
C        9.84000000       2.84056332       6.20000000
C        7.38000000       4.26084499       6.20000000
C        8.61000000       4.97098582       6.20000000
C        6.15000000       6.39126748       6.20000000
C        7.38000000       7.10140831       6.20000000
C        4.92000000       8.52168997       6.20000000
C        6.15000000       9.23183080       6.20000000
C        3.69000000      10.65211247       6.20000000
C        4.92000000      11.36225330       6.20000000
C        2.46000000      12.78253496       6.20000000
C        3.69000000      13.49267579       6.20000000
C        1.23000000      14.91295745       6.20000000
C        2.46000000      15.62309828       6.20000000
C       12.30000000       0.00000000       6.20000000
C       13.53000000       0.71014083       6.20000000
C       11.07000000       2.13042249       6.20000000
C       12.30000000       2.84056332       6.20000000
C        9.84000000       4.26084499       6.20000000
C       11.07000000       4.97098582       6.20000000
C        8.61000000       6.39126748       6.20000000
C        9.84000000       7.10140831       6.20000000
C        7.38000000       8.52168997       6.20000000
C        8.61000000       9.23183080       6.20000000
C        6.15000000      10.65211247       6.20000000
C        7.38000000      11.36225330       6.20000000
C        4.92000000      12.78253496       6.20000000
C        6.15000000      13.49267579       6.20000000
C        3.69000000      14.91295745       6.20000000
C        4.92000000      15.62309828       6.20000000
C       14.76000000       0.00000000       6.20000000
C       15.99000000       0.71014083       6.20000000
C       13.53000000       2.13042249       6.20000000
C       14.76000000       2.84056332       6.20000000
C       12.30000000       4.26084499       6.20000000
C       13.53000000       4.97098582       6.20000000
C       11.07000000       6.39126748       6.20000000
C       12.30000000       7.10140831       6.20000000
C        9.84000000       8.52168997       6.20000000
C       11.07000000       9.23183080       6.20000000
C        8.61000000      10.65211247       6.20000000
C        9.84000000      11.36225330       6.20000000
C        7.38000000      12.78253496       6.20000000
C        8.61000000      13.49267579       6.20000000
C        6.15000000      14.91295745       6.20000000
C        7.38000000      15.62309828       6.20000000
C       17.22000000       0.00000000       6.20000000
C       18.45000000       0.71014083       6.20000000
C       15.99000000       2.13042249       6.20000000
C       17.22000000       2.84056332       6.20000000
C       14.76000000       4.26084499       6.20000000
C       15.99000000       4.97098582       6.20000000
C       13.53000000       6.39126748       6.20000000
C       14.76000000       7.10140831       6.20000000
C       12.30000000       8.52168997       6.20000000
C       13.53000000       9.23183080       6.20000000
C       11.07000000      10.65211247       6.20000000
C       12.30000000      11.36225330       6.20000000
C        9.84000000      12.78253496       6.20000000
C       11.07000000      13.49267579       6.20000000
C        8.61000000      14.91295745       6.20000000
C        9.84000000      15.62309828       6.20000000
C        0.00000000       0.00000000       9.55000000
C        1.23000000       0.71014083       9.55000000
C       -1.23000000       2.13042249       9.55000000
C        0.00000000       2.84056332       9.55000000
C       -2.46000000       4.26084499       9.55000000
C       -1.23000000       4.97098582       9.55000000
C       -3.69000000       6.39126748       9.55000000
C       -2.46000000       7.10140831       9.55000000
C       -4.92000000       8.52168997       9.55000000
C       -3.69000000       9.23183080       9.55000000
C       -6.15000000      10.65211247       9.55000000
C       -4.92000000      11.36225330       9.55000000
C       -7.38000000      12.78253496       9.55000000
C       -6.15000000      13.49267579       9.55000000
C       -8.61000000      14.91295745       9.55000000
C       -7.38000000      15.62309828       9.55000000
C        2.46000000       0.00000000       9.55000000
C        3.69000000       0.71014083       9.55000000
C        1.23000000       2.13042249       9.55000000
C        2.46000000       2.84056332       9.55000000
C        0.00000000       4.26084499       9.55000000
C        1.23000000       4.97098582       9.55000000
C       -1.23000000       6.39126748       9.55000000
C        0.00000000       7.10140831       9.55000000
C       -2.46000000       8.52168997       9.55000000
C       -1.23000000       9.23183080       9.55000000
C       -3.69000000      10.65211247       9.55000000
C       -2.46000000      11.36225330       9.55000000
C       -4.92000000      12.78253496       9.55000000
C       -3.69000000      13.49267579       9.55000000
C       -6.15000000      14.91295745       9.55000000
C       -4.92000000      15.62309828       9.55000000
C        4.92000000       0.00000000       9.55000000
C        6.15000000       0.71014083       9.55000000
C        3.69000000       2.13042249       9.55000000
C        4.92000000       2.84056332       9.55000000
C        2.46000000       4.26084499       9.55000000
C        3.69000000       4.97098582       9.55000000
C        1.23000000       6.39126748       9.55000000
C        2.46000000       7.10140831       9.55000000
C        0.00000000       8.52168997       9.55000000
C        1.23000000       9.23183080       9.55000000
C       -1.23000000      10.65211247       9.55000000
C       -0.00000000      11.36225330       9.55000000
C       -2.46000000      12.78253496       9.55000000
C       -1.23000000      13.49267579       9.55000000
C       -3.69000000      14.91295745       9.55000000
C       -2.46000000      15.62309828       9.55000000
C        7.38000000       0.00000000       9.55000000
C        8.61000000       0.71014083       9.55000000
C        6.15000000       2.13042249       9.55000000
C        7.38000000       2.84056332       9.55000000
C        4.92000000       4.26084499       9.55000000
C        6.15000000       4.97098582       9.55000000
C        3.69000000       6.39126748       9.55000000
C        4.92000000       7.10140831       9.55000000
C        2.46000000       8.52168997       9.55000000
C        3.69000000       9.23183080       9.55000000
C        1.23000000      10.65211247       9.55000000
C        2.46000000      11.36225330       9.55000000
C        0.00000000      12.78253496       9.55000000
C        1.23000000      13.49267579       9.55000000
C       -1.23000000      14.91295745       9.55000000
C        0.00000000      15.62309828       9.55000000
C        9.84000000       0.00000000       9.55000000
C       11.07000000       0.71014083       9.55000000
C        8.61000000       2.13042249       9.55000000
C        9.84000000       2.84056332       9.55000000
C        7.38000000       4.26084499       9.55000000
C        8.61000000       4.97098582       9.55000000
C        6.15000000       6.39126748       9.55000000
C        7.38000000       7.10140831       9.55000000
C        4.92000000       8.52168997       9.55000000
C        6.15000000       9.23183080       9.55000000
C        3.69000000      10.65211247       9.55000000
C        4.92000000      11.36225330       9.55000000
C        2.46000000      12.78253496       9.55000000
C        3.69000000      13.49267579       9.55000000
C        1.23000000      14.91295745       9.55000000
C        2.46000000      15.62309828       9.55000000
C       12.30000000       0.00000000       9.55000000
C       13.53000000       0.71014083       9.55000000
C       11.07000000       2.13042249       9.55000000
C       12.30000000       2.84056332       9.55000000
C        9.84000000       4.26084499       9.55000000
C       11.07000000       4.97098582       9.55000000
C        8.61000000       6.39126748       9.55000000
C        9.84000000       7.10140831       9.55000000
C        7.38000000       8.52168997       9.55000000
C        8.61000000       9.23183080       9.55000000
C        6.15000000      10.65211247       9.55000000
C        7.38000000      11.36225330       9.55000000
C        4.92000000      12.78253496       9.55000000
C        6.15000000      13.49267579       9.55000000
C        3.69000000      14.91295745       9.55000000
C        4.92000000      15.62309828       9.55000000
C       14.76000000       0.00000000       9.55000000
C       15.99000000       0.71014083       9.55000000
C       13.53000000       2.13042249       9.55000000
C       14.76000000       2.84056332       9.55000000
C       12.30000000       4.26084499       9.55000000
C       13.53000000       4.97098582       9.55000000
C       11.07000000       6.39126748       9.55000000
C       12.30000000       7.10140831       9.55000000
C        9.84000000       8.52168997       9.55000000
C       11.07000000       9.23183080       9.55000000
C        8.61000000      10.65211247       9.55000000
C        9.84000000      11.36225330       9.55000000
C        7.38000000      12.78253496       9.55000000
C        8.61000000      13.49267579       9.55000000
C        6.15000000      14.91295745       9.55000000
C        7.38000000      15.62309828       9.55000000
C       17.22000000       0.00000000       9.55000000
C       18.45000000       0.71014083       9.55000000
C       15.99000000       2.13042249       9.55000000
C       17.22000000       2.84056332       9.55000000
C       14.76000000       4.26084499       9.55000000
C       15.99000000       4.97098582       9.55000000
C       13.53000000       6.39126748       9.55000000
C       14.76000000       7.10140831       9.55000000
C       12.30000000       8.52168997       9.55000000
C       13.53000000       9.23183080       9.55000000
C       11.07000000      10.65211247       9.55000000
C       12.30000000      11.36225330       9.55000000
C        9.84000000      12.78253496       9.55000000
C       11.07000000      13.49267579       9.55000000
C        8.61000000      14.91295745       9.55000000
C        9.84000000      15.62309828       9.55000000
